NAME: Acephate
PRECURSORMZ: 184.019177
PRECURSORTYPE: [M+H]+
INSTRUMENTTYPE: 
INSTRUMENT: 
Authors: 
License: 
SMILES: 
INCHI: 
INCHIKEY: 
COLLISIONENERGY: 
FORMULA: C4H10NO3PS
RETENTIONTIME: 2.436
IONMODE: Positive
MASSBANKACCESSION: 
Links: 
Comment: C2H7O3PS C2H5O2PS CH3O2PS 
Num Peaks: 3
142.992628 1.0
124.982063 0.5973154310000001
110.966413 0.200447425

NAME: Fuberidazole
PRECURSORMZ: 185.070939
PRECURSORTYPE: [M+H]+
INSTRUMENTTYPE: 
INSTRUMENT: 
Authors: 
License: 
SMILES: 
INCHI: 
INCHIKEY: 
COLLISIONENERGY: 
FORMULA: C11H8N2O
RETENTIONTIME: 4.280166666666667
IONMODE: Positive
MASSBANKACCESSION: 
Links: 
Comment: C10H8N2 C10H7N2 C10H6N2 C9H7N C9H6N C8H6N2 C9H5N2 C8H6 
Num Peaks: 8
157.07602499999996 1.0
156.0682 0.779864907
155.060375 0.120317459
130.065126 0.116526894
129.057301 0.08988114400000001
131.060375 0.043959729
142.05255 0.041723829
103.054227 0.032518938

NAME: Tricyclazol
PRECURSORMZ: 190.043345
PRECURSORTYPE: [M+H]+
INSTRUMENTTYPE: 
INSTRUMENT: 
Authors: 
License: 
SMILES: 
INCHI: 
INCHIKEY: 
COLLISIONENERGY: 
FORMULA: C9H7N3S
RETENTIONTIME: 4.840816666666667
IONMODE: Positive
MASSBANKACCESSION: 
Links: 
Comment: C8H6N2S C7H5NS C6H4S 
Num Peaks: 3
163.032446 1.0
136.021547 0.8528851270000001
109.010648 0.18902441899999997

NAME: Carbendazim
PRECURSORMZ: 192.076753
PRECURSORTYPE: [M+H]+
INSTRUMENTTYPE: 
INSTRUMENT: 
Authors: 
License: 
SMILES: 
INCHI: 
INCHIKEY: 
COLLISIONENERGY: 
FORMULA: C9H9N3O2
RETENTIONTIME: 3.7870166666666667
IONMODE: Positive
MASSBANKACCESSION: 
Links: 
Comment: C8H5N3O C7H5N3 C6H4N2 C7H4N2 
Num Peaks: 4
160.05053799999996 1.0
132.055624 0.213051215
105.044725 0.061724067
117.044725 0.031045981

NAME: Cymoxanil
PRECURSORMZ: 199.082567
PRECURSORTYPE: [M+H]+
INSTRUMENTTYPE: 
INSTRUMENT: 
Authors: 
License: 
SMILES: 
INCHI: 
INCHIKEY: 
COLLISIONENERGY: 
FORMULA: C7H10N4O3
RETENTIONTIME: 4.988766666666667
IONMODE: Positive
MASSBANKACCESSION: 
Links: 
Comment: C4H2N2O2 C4H5N3O2 C7H6N2 C6H8O3 
Num Peaks: 4
111.018904 1.0
128.045453 0.34793469299999996
119.060375 0.240877867
129.054621 0.13382104

NAME: Thiabendazole
PRECURSORMZ: 202.043345
PRECURSORTYPE: [M+H]+
INSTRUMENTTYPE: 
INSTRUMENT: 
Authors: 
License: 
SMILES: 
INCHI: 
INCHIKEY: 
COLLISIONENERGY: 
FORMULA: C10H7N3S
RETENTIONTIME: 3.9960333333333335
IONMODE: Positive
MASSBANKACCESSION: 
Links: 
Comment: C9H6N2S C8H6N2 C9H6N2 
Num Peaks: 3
175.032446 1.0
131.060375 0.457474947
143.060375 0.047165349

NAME: Carbaryl
PRECURSORMZ: 202.086255
PRECURSORTYPE: [M+H]+
INSTRUMENTTYPE: 
INSTRUMENT: 
Authors: 
License: 
SMILES: 
INCHI: 
INCHIKEY: 
COLLISIONENERGY: 
FORMULA: C12H11NO2
RETENTIONTIME: 6.2527833333333325
IONMODE: Positive
MASSBANKACCESSION: 
Links: 
Comment: C10H6 C10H8O C9H8 C9H6 C10H5 
Num Peaks: 5
127.054227 1.0
145.064791 0.578958094
117.069877 0.320869237
115.054227 0.18738041800000002
126.046402 0.05839513599999999

NAME: Metamitron
PRECURSORMZ: 203.092737
PRECURSORTYPE: [M+H]+
INSTRUMENTTYPE: 
INSTRUMENT: 
Authors: 
License: 
SMILES: 
INCHI: 
INCHIKEY: 
COLLISIONENERGY: 
FORMULA: C10H10N4O
RETENTIONTIME: 4.371849999999999
IONMODE: Positive
MASSBANKACCESSION: 
Links: 
Comment: C9H10N4 C7H5N C8H4N2O C7H6N C9H8N3 C9H7N C7H5N2 C7H7N3 C9H7N3 
Num Peaks: 9
175.097823 1.0
104.04947600000001 0.867411673
145.039639 0.137513787
105.057301 0.104742065
159.079099 0.095738851
130.065126 0.067260973
118.05255 0.039552111
134.071274 0.036566921
158.07127399999996 0.036566921

NAME: Quinoclamine
PRECURSORMZ: 208.015983
PRECURSORTYPE: [M+H]+
INSTRUMENTTYPE: 
INSTRUMENT: 
Authors: 
License: 
SMILES: 
INCHI: 
INCHIKEY: 
COLLISIONENERGY: 
FORMULA: C10H6ClNO2
RETENTIONTIME: 5.651483333333333
IONMODE: Positive
MASSBANKACCESSION: 
Links: 
Comment: C7H4O C10H5NO2 C10H3NO C9H5NO C8H5N C8H5Cl C9H3N C9H6ClNO C9H5ClO2 C8H4 C9H3ClO C7H5Cl 
Num Peaks: 12
105.033491 1.0
172.039305 0.6228762870000001
154.02874 0.617913127
144.04439 0.399534196
116.04947600000001 0.34653475899999997
137.01525400000003 0.314096957
126.033826 0.270669341
180.021068 0.192322358
181.005084 0.088627815
101.038577 0.08632349199999999
162.994519 0.059797185999999995
125.01525400000001 0.054417476

NAME: Aminocarb
PRECURSORMZ: 209.128454
PRECURSORTYPE: [M+H]+
INSTRUMENTTYPE: 
INSTRUMENT: 
Authors: 
License: 
SMILES: 
INCHI: 
INCHIKEY: 
COLLISIONENERGY: 
FORMULA: C11H16N2O2
RETENTIONTIME: 3.15205
IONMODE: Positive
MASSBANKACCESSION: 
Links: 
Comment: C8H10NO C7H7NO C9H13NO C8H9NO 
Num Peaks: 4
137.083515 1.0
122.06004 0.22430767100000001
152.10699 0.145553812
136.07569 0.145081028

NAME: Ethirimol
PRECURSORMZ: 210.160089
PRECURSORTYPE: [M+H]+
INSTRUMENTTYPE: 
INSTRUMENT: 
Authors: 
License: 
SMILES: 
INCHI: 
INCHIKEY: 
COLLISIONENERGY: 
FORMULA: C11H19N3O
RETENTIONTIME: 5.466433333333333
IONMODE: Positive
MASSBANKACCESSION: 
Links: 
Comment: C8H13NO C9H15N3O C11H16N2O C9H12N2O C6H7N3O C6H8N3O C8H12N3O C7H8N 
Num Peaks: 8
140.10699 1.0
182.128789 0.315096676
193.13354 0.247010827
165.102239 0.167464957
138.066188 0.11704807699999999
139.074013 0.096363313
167.105313 0.079545856
107.072951 0.058555614000000006

NAME: Metribuzin
PRECURSORMZ: 215.096109
PRECURSORTYPE: [M+H]+
INSTRUMENTTYPE: 
INSTRUMENT: 
Authors: 
License: 
SMILES: 
INCHI: 
INCHIKEY: 
COLLISIONENERGY: 
FORMULA: C8H14N4OS
RETENTIONTIME: 5.805750000000001
IONMODE: Positive
MASSBANKACCESSION: 
Links: 
Comment: C7H14N4S C7H10N2OS C6H9N3S C7H9N3OS C6H11N4S 
Num Peaks: 5
187.101194 1.0
171.05866 0.146138817
156.058995 0.068125479
184.053909 0.045758717000000004
172.077719 0.030365765

NAME: Ethyoxyquin
PRECURSORMZ: 218.153941
PRECURSORTYPE: [M+H]+
INSTRUMENTTYPE: 
INSTRUMENT: 
Authors: 
License: 
SMILES: 
INCHI: 
INCHIKEY: 
COLLISIONENERGY: 
FORMULA: C14H19NO
RETENTIONTIME: 4.7519
IONMODE: Positive
MASSBANKACCESSION: 
Links: 
Comment: C10H9NO C11H11NO C9H9NO C12H13NO C13H15NO C9H7NO C12H15NO C8H6NO C8H7NO C9H8NO C10H11NO C10H11N C11H13NO C11H11N C9H7N C8H9N C10H10NO C10H8NO C13H16NO C9H8N C11H9O C7H7N C12H12O C10H8N C8H7N C9H9N C8H5N C10H9N C10H10N C7H6O C7H7NO C11H10NO C11H12 C10H8 C11H9N C10H7N 
Num Peaks: 36
160.07569 1.0
174.09134 0.995000005
148.07569 0.754999995
188.10699 0.6800000070000001
202.122641 0.5699999929999999
146.06003999999996 0.554285705
190.122641 0.45714286
133.052215 0.28285715
134.06004 0.240714282
147.067865 0.239999995
162.09134 0.200000003
146.096426 0.190714285
176.10699 0.155000001
158.096426 0.154285714
130.065126 0.138571426
120.080776 0.109999999
161.083515 0.106435709
159.067865 0.10285714300000001
203.130466 0.092857145
131.072951 0.09214285800000001
158.072616 0.08700714300000001
106.065126 0.071428575
173.096091 0.07016428599999999
143.072951 0.065714285
118.065126 0.060714286
132.080776 0.05642857
116.04947600000001 0.055714287
144.08077599999996 0.055714287
145.088601 0.055714287
107.049141 0.050714284000000005
122.06004 0.049285714
173.083515 0.049285714
145.101177 0.044285715
129.069877 0.039285716
156.08077599999996 0.034285712999999995
142.065126 0.032857142

NAME: Cymiazol hydrochloride
PRECURSORMZ: 219.095046
PRECURSORTYPE: [M+H]+
INSTRUMENTTYPE: 
INSTRUMENT: 
Authors: 
License: 
SMILES: 
INCHI: 
INCHIKEY: 
COLLISIONENERGY: 
FORMULA: C12H14N2S
RETENTIONTIME: 6.7174
IONMODE: Positive
MASSBANKACCESSION: 
Links: 
Comment: C11H10N2 C10H9N C11H10N2S C11H11N2S C9H7N C10H8N C8H8 C8H9N C10H7N2 C9H8N C4H5NS C10H8N2S C10H10NS C11H8NS C9H8NS C9H7NS C9H9N C10H7N C9H9NS C8H6N C9H8 C9H8N2 C8H6 C11H7N C10H9NS 
Num Peaks: 25
171.091675 1.0
144.08077599999996 0.9135733840000001
203.063746 0.38801199200000003
204.071571 0.379929543
130.065126 0.37974661600000004
143.072951 0.34291923
105.069877 0.334093392
120.080776 0.31564194
156.0682 0.271188319
131.072951 0.24880199100000003
100.021547 0.214876875
189.048096 0.20121111
177.060672 0.131253034
187.045022 0.12889421
163.04502199999996 0.112024173
162.037197 0.08991754099999999
132.080776 0.088588186
142.065126 0.08810962
164.052847 0.084493779
117.057301 0.064820394
117.069877 0.061729375
145.07602499999996 0.059540194000000005
103.054227 0.055278283
154.065126 0.053759098
176.052847 0.041475862

NAME: Chloridazon
PRECURSORMZ: 222.042866
PRECURSORTYPE: [M+H]+
INSTRUMENTTYPE: 
INSTRUMENT: 
Authors: 
License: 
SMILES: 
INCHI: 
INCHIKEY: 
COLLISIONENERGY: 
FORMULA: C10H8ClN3O
RETENTIONTIME: 4.5106
IONMODE: Positive
MASSBANKACCESSION: 
Links: 
Comment: C7H5N C4H4ClN3O C4HClN2O C3HClN2 C9H7N C10H7N3O C8H4ClN C8H6N2 C10H5ClN2O C8H5NO C10H7NO C9H5ClN2 
Num Peaks: 12
104.04947600000001 1.0
146.01156599999996 0.5750953560000001
128.98501700000003 0.358316213
100.990102 0.213699028
130.065126 0.17072455600000003
186.066188 0.110589616
150.010503 0.10589616
131.060375 0.07582868599999999
205.016317 0.055734821
132.04439 0.046201233
158.06003999999996 0.035200939
177.021402 0.030800821000000003

NAME: Methabenzthiazurone
PRECURSORMZ: 222.069559
PRECURSORTYPE: [M+H]+
INSTRUMENTTYPE: 
INSTRUMENT: 
Authors: 
License: 
SMILES: 
INCHI: 
INCHIKEY: 
COLLISIONENERGY: 
FORMULA: C10H11N3OS
RETENTIONTIME: 6.0916
IONMODE: Positive
MASSBANKACCESSION: 
Links: 
Comment: C8H8N2S C7H5N2S C6H5NS C6H4NS 
Num Peaks: 4
165.04809599999996 1.0
150.024621 0.627468467
124.021547 0.13836427
123.013722 0.04592707

NAME: Carbofuran
PRECURSORMZ: 222.11247
PRECURSORTYPE: [M+H]+
INSTRUMENTTYPE: 
INSTRUMENT: 
Authors: 
License: 
SMILES: 
INCHI: 
INCHIKEY: 
COLLISIONENERGY: 
FORMULA: C12H15NO3
RETENTIONTIME: 6.080150000000001
IONMODE: Positive
MASSBANKACCESSION: 
Links: 
Comment: C7H6O2 C10H12O2 C8H8O2 
Num Peaks: 3
123.044056 1.0
165.091006 0.143068418
137.059706 0.068081424

NAME: Mexacarbate
PRECURSORMZ: 223.144104
PRECURSORTYPE: [M+H]+
INSTRUMENTTYPE: 
INSTRUMENT: 
Authors: 
License: 
SMILES: 
INCHI: 
INCHIKEY: 
COLLISIONENERGY: 
FORMULA: C12H18N2O2
RETENTIONTIME: 4.044266666666667
IONMODE: Positive
MASSBANKACCESSION: 
Links: 
Comment: C9H12NO C8H9NO C10H15NO C9H9O C9H11NO 
Num Peaks: 5
151.099165 1.0
136.07569 0.59268105
166.12264099999996 0.21068576
134.072616 0.038273614
150.09134 0.035095431

NAME: Mepanipyrim
PRECURSORMZ: 224.118224
PRECURSORTYPE: [M+H]+
INSTRUMENTTYPE: 
INSTRUMENT: 
Authors: 
License: 
SMILES: 
INCHI: 
INCHIKEY: 
COLLISIONENERGY: 
FORMULA: C14H13N3
RETENTIONTIME: 7.782883333333333
IONMODE: Positive
MASSBANKACCESSION: 
Links: 
Comment: C7H7N C14H9N2 C13H10N3 C14H8N2 C8H6N2 C14H10N2 C7H5N C12H9N2 C13H9N3 C12H10N2 C9H6N2 C10H7N C12H8N2 C11H7N2 C14H11N3 C13H9N C13H7N2 C10H5N C7H6N2 C14H12N3 C9H6 C13H10N2 C11H9N C13H8N C12H7N C13H7N C12H7 C11H7N C13H12N2 C13H11N2 C9H5N C11H6 C6H6N2 C8H7N3 C12H6N C11H8N2 C13H6N2 C14H7N C12H8 C12H6 C10H8 C10H8N2 C6H4N2 C9H7N C10H6N2 C10H6N C10H10N2 C10H6 
Num Peaks: 48
106.065126 1.0
206.08385 0.691485226
209.094749 0.647043645
205.076025 0.6326162820000001
131.060375 0.5440281029999999
207.091675 0.540126264
104.04947600000001 0.479324996
182.08385 0.446219236
208.086924 0.441581875
183.091675 0.425479829
143.060375 0.381315202
142.065126 0.373398155
181.076025 0.365989953
168.0682 0.345098555
222.102574 0.308901191
180.08077599999996 0.29397398199999997
192.0682 0.219631582
140.04947600000003 0.18808449800000002
119.060375 0.187427536
223.110399 0.157671005
115.054227 0.123405896
195.091675 0.117093906
156.08077599999996 0.10202241699999999
179.07295099999996 0.094937526
166.065126 0.09030014300000001
178.065126 0.084245779
152.062052 0.08154064400000001
154.065126 0.07857786900000001
197.107325 0.071235344
196.0995 0.06363519299999999
128.04947600000003 0.057236891
139.054227 0.0533299
107.060375 0.052170552
146.07127399999996 0.051912919
165.057301 0.051060159
169.07602499999996 0.050238310999999994
191.060375 0.049341749000000004
190.065126 0.048306067
153.069877 0.045192577000000005
151.054227 0.044441580999999994
129.069877 0.044088628
157.07602499999996 0.04250934
105.044725 0.041735154
130.065126 0.040705912000000004
155.060375 0.039744943
141.057301 0.034007471000000004
159.091675 0.032848127000000005
127.054227 0.030915882000000002

NAME: Methiocarb
PRECURSORMZ: 226.089626
PRECURSORTYPE: [M+H]+
INSTRUMENTTYPE: 
INSTRUMENT: 
Authors: 
License: 
SMILES: 
INCHI: 
INCHIKEY: 
COLLISIONENERGY: 
FORMULA: C11H15NO2S
RETENTIONTIME: 7.191466666666668
IONMODE: Positive
MASSBANKACCESSION: 
Links: 
Comment: C8H8O C8H9O C7H6O C9H12OS C8H9OS 
Num Peaks: 5
121.06479099999999 1.0
122.072616 0.490185857
107.049141 0.264356881
169.068162 0.100599669
154.044687 0.044644825

NAME: Cyprodinil
PRECURSORMZ: 226.133874
PRECURSORTYPE: [M+H]+
INSTRUMENTTYPE: 
INSTRUMENT: 
Authors: 
License: 
SMILES: 
INCHI: 
INCHIKEY: 
COLLISIONENERGY: 
FORMULA: C14H15N3
RETENTIONTIME: 8.048916666666667
IONMODE: Positive
MASSBANKACCESSION: 
Links: 
Comment: C13H11N3 C7H9N C8H8N2 C7H5N2 C8H7N C7H7N C7H6N2 C13H9N2 C10H9N C14H12N2 C11H9N3 C12H12N2 C8H6N2 C9H6N2 C8H5N C12H10N2 C11H8N2 C6H7N2 C10H10N2 C12H11N3 C9H8N2 C10H7N C7H5N C7H10N2 C10H8N2 C10H5N 
Num Peaks: 26
210.102574 1.0
108.080776 0.7563980220000001
133.076025 0.651792884
118.05255 0.559387565
118.065126 0.5409992929999999
106.065126 0.46351707
119.060375 0.455223978
194.08385 0.44043088
144.08077599999996 0.436291069
209.107325 0.374310225
184.086924 0.32449781899999997
185.107325 0.320292979
131.060375 0.302361965
143.060375 0.29493627
116.04947600000001 0.257534385
183.091675 0.23422405100000002
169.07602499999996 0.214948207
108.0682 0.21462319800000002
159.091675 0.18894821399999998
198.102574 0.173034415
145.07602499999996 0.17146545600000002
142.065126 0.09749996699999999
104.04947600000001 0.076655142
123.091675 0.074413769
157.07602499999996 0.063879289
140.04947600000003 0.060517222

NAME: Prometon
PRECURSORMZ: 226.166237
PRECURSORTYPE: [M+H]+
INSTRUMENTTYPE: 
INSTRUMENT: 
Authors: 
License: 
SMILES: 
INCHI: 
INCHIKEY: 
COLLISIONENERGY: 
FORMULA: C10H19N5O
RETENTIONTIME: 6.979883333333333
IONMODE: Positive
MASSBANKACCESSION: 
Links: 
Comment: C4H7N5O C7H13N5O C3H5N3O 
Num Peaks: 3
142.072336 1.0
184.119286 0.540604353
100.050538 0.161687121

NAME: Secbumeton
PRECURSORMZ: 226.166237
PRECURSORTYPE: [M+H]+
INSTRUMENTTYPE: 
INSTRUMENT: 
Authors: 
License: 
SMILES: 
INCHI: 
INCHIKEY: 
COLLISIONENERGY: 
FORMULA: C10H19N5O
RETENTIONTIME: 6.960316666666667
IONMODE: Positive
MASSBANKACCESSION: 
Links: 
Comment: C6H11N5O C3H5N3O C4H7N5O C4H7N3O C5H9N3O 
Num Peaks: 5
170.103636 1.0
100.050538 0.18028266699999998
142.072336 0.16907963199999998
114.066188 0.076352984
128.081838 0.061702862000000004

NAME: Tebuthiuron
PRECURSORMZ: 229.111759
PRECURSORTYPE: [M+H]+
INSTRUMENTTYPE: 
INSTRUMENT: 
Authors: 
License: 
SMILES: 
INCHI: 
INCHIKEY: 
COLLISIONENERGY: 
FORMULA: C9H16N4OS
RETENTIONTIME: 5.283483333333334
IONMODE: Positive
MASSBANKACCESSION: 
Links: 
Comment: C7H13N3S C3H5N3S C6H10N3S C5H7N3S C6H9N3S 
Num Peaks: 5
172.090295 1.0
116.027695 0.303342789
157.06682 0.146045581
142.043345 0.057233945
156.058995 0.040924396

NAME: Trietazin
PRECURSORMZ: 230.1167
PRECURSORTYPE: [M+H]+
INSTRUMENTTYPE: 
INSTRUMENT: 
Authors: 
License: 
SMILES: 
INCHI: 
INCHIKEY: 
COLLISIONENERGY: 
FORMULA: C9H16ClN5
RETENTIONTIME: 7.846583333333333
IONMODE: Positive
MASSBANKACCESSION: 
Links: 
Comment: C7H12ClN5 C4H6ClN3 C2H2ClN3 C6H9N3 C5H8ClN5 C9H15N5 C7H11N5 C3H4ClN5 
Num Peaks: 8
202.0854 1.0
132.032301 0.759287357
104.001001 0.486128956
124.086924 0.332824498
174.054099 0.197658375
194.140022 0.132134259
166.108722 0.09027078
146.022799 0.033010941

NAME: Fluometuron
PRECURSORMZ: 233.089624
PRECURSORTYPE: [M+H]+
INSTRUMENTTYPE: 
INSTRUMENT: 
Authors: 
License: 
SMILES: 
INCHI: 
INCHIKEY: 
COLLISIONENERGY: 
FORMULA: C10H11F3N2O
RETENTIONTIME: 6.2579166666666675
IONMODE: Positive
MASSBANKACCESSION: 
Links: 
Comment: C7H4F3N C7H3F3 C8H3F2NO C7H3F2N C8H4F3NO C6H3F3 
Num Peaks: 6
160.03686 1.0
145.025961 0.658758104
168.02554699999996 0.35199257700000003
140.030632 0.317516208
188.031775 0.20457831
133.025961 0.055607042999999995

NAME: Lenacil
PRECURSORMZ: 235.144104
PRECURSORTYPE: [M+H]+
INSTRUMENTTYPE: 
INSTRUMENT: 
Authors: 
License: 
SMILES: 
INCHI: 
INCHIKEY: 
COLLISIONENERGY: 
FORMULA: C13H18N2O2
RETENTIONTIME: 5.812983333333333
IONMODE: Positive
MASSBANKACCESSION: 
Links: 
Comment: C7H8N2O2 C7H5NO2 C7H6N2O C6H7NO 
Num Peaks: 4
153.065854 1.0
136.039305 0.271721482
135.055289 0.147764474
110.06004 0.049994490999999995

NAME: Carboxin
PRECURSORMZ: 236.073976
PRECURSORTYPE: [M+H]+
INSTRUMENTTYPE: 
INSTRUMENT: 
Authors: 
License: 
SMILES: 
INCHI: 
INCHIKEY: 
COLLISIONENERGY: 
FORMULA: C12H13NO2S
RETENTIONTIME: 6.392783333333333
IONMODE: Positive
MASSBANKACCESSION: 
Links: 
Comment: C6H6O2S C6H5NS C8H5NO C8H7NOS 
Num Peaks: 4
143.016127 1.0
124.021547 0.122898251
132.04439 0.063723765
166.03211099999996 0.038057718

NAME: Pirimicarb
PRECURSORMZ: 239.150252
PRECURSORTYPE: [M+H]+
INSTRUMENTTYPE: 
INSTRUMENT: 
Authors: 
License: 
SMILES: 
INCHI: 
INCHIKEY: 
COLLISIONENERGY: 
FORMULA: C11H18N4O2
RETENTIONTIME: 4.852566666666666
IONMODE: Positive
MASSBANKACCESSION: 
Links: 
Comment: C9H15N3O C7H8N2O C6H8N2 C8H11N3 C7H9N2O C7H9N3O C8H12N3O C10H18N4 
Num Peaks: 8
182.128789 1.0
137.070939 0.160803676
109.076025 0.13786801699999998
150.102574 0.10591059900000001
138.078764 0.08943854300000001
152.081838 0.06651973
167.105313 0.059181597
195.160423 0.044568855

NAME: Ethoprop
PRECURSORMZ: 243.063685
PRECURSORTYPE: [M+H]+
INSTRUMENTTYPE: 
INSTRUMENT: 
Authors: 
License: 
SMILES: 
INCHI: 
INCHIKEY: 
COLLISIONENERGY: 
FORMULA: C8H19O2PS2
RETENTIONTIME: 7.698666666666667
IONMODE: Positive
MASSBANKACCESSION: 
Links: 
Comment: H3O2PS2 C3H9O2PS2 HOPS2 
Num Peaks: 3
130.938484 1.0
172.985435 0.24843040100000002
112.92792 0.040376704

NAME: Propyzamide
PRECURSORMZ: 256.029046
PRECURSORTYPE: [M+H]+
INSTRUMENTTYPE: 
INSTRUMENT: 
Authors: 
License: 
SMILES: 
INCHI: 
INCHIKEY: 
COLLISIONENERGY: 
FORMULA: C12H11Cl2NO
RETENTIONTIME: 7.627833333333333
IONMODE: Positive
MASSBANKACCESSION: 
Links: 
Comment: C7H2Cl2O C6H2Cl2 C7H5Cl2NO C6H4Cl2 
Num Peaks: 4
172.955546 1.0
144.960632 0.457119435
189.982096 0.42066139
146.976282 0.055698279

NAME: Imidacloprid
PRECURSORMZ: 256.059579
PRECURSORTYPE: [M+H]+
INSTRUMENTTYPE: 
INSTRUMENT: 
Authors: 
License: 
SMILES: 
INCHI: 
INCHIKEY: 
COLLISIONENERGY: 
FORMULA: C9H10ClN5O2
RETENTIONTIME: 4.545366666666666
IONMODE: Positive
MASSBANKACCESSION: 
Links: 
Comment: C9H9ClN4 C9H10N4 C9H9N4 C9H8N4 C7H6N4 C6H6ClN C8H7N3 C7H6N3 C9H8N3 C9H7N3 C6H4ClN C8H9N3 
Num Peaks: 12
209.05885 1.0
175.097823 0.819970667
174.089998 0.142010778
173.082173 0.138180733
147.06652299999996 0.080371037
128.026153 0.07049670799999999
146.07127399999996 0.067025736
133.063449 0.064290844
159.079099 0.062657088
158.07127399999996 0.044045482000000004
126.010503 0.037994616
148.086924 0.037022743

NAME: Dimethachlor
PRECURSORMZ: 256.109883
PRECURSORTYPE: [M+H]+
INSTRUMENTTYPE: 
INSTRUMENT: 
Authors: 
License: 
SMILES: 
INCHI: 
INCHIKEY: 
COLLISIONENERGY: 
FORMULA: C13H18ClNO2
RETENTIONTIME: 6.87
IONMODE: Positive
MASSBANKACCESSION: 
Links: 
Comment: C10H13N C12H14ClNO C9H9N C8H8 C9H10N C9H8N C10H11N 
Num Peaks: 7
148.112076 1.0
224.083668 0.8567577
132.080776 0.136783704
105.069877 0.089741029
133.088601 0.066678949
131.072951 0.04936824
146.096426 0.031204557

NAME: Metobromuron
PRECURSORMZ: 259.007666
PRECURSORTYPE: [M+H]+
INSTRUMENTTYPE: 
INSTRUMENT: 
Authors: 
License: 
SMILES: 
INCHI: 
INCHIKEY: 
COLLISIONENERGY: 
FORMULA: C9H11BrN2O2
RETENTIONTIME: 6.66205
IONMODE: Positive
MASSBANKACCESSION: 
Links: 
Comment: C8H7N2O C7H6N2 C8H6N2O C6H4BrN C5H3Br C8H6N2 C8H4N2 
Num Peaks: 7
148.063114 1.0
119.060375 0.551755369
147.05528899999996 0.45372313299999995
169.959988 0.322274536
142.94908899999996 0.068432093
131.060375 0.053224962
129.044725 0.032249607

NAME: Sulfadiazole
PRECURSORMZ: 265.042359
PRECURSORTYPE: [M+H]+
INSTRUMENTTYPE: 
INSTRUMENT: 
Authors: 
License: 
SMILES: 
INCHI: 
INCHIKEY: 
COLLISIONENERGY: 
FORMULA: C7H12N4O3S2
RETENTIONTIME: 4.444283333333333
IONMODE: Positive
MASSBANKACCESSION: 
Links: 
Comment: C5H9N3O2S2 C3H3N3OS2 C3H3N3S C3H5N3S C3H5N3O2S2 
Num Peaks: 5
208.020895 1.0
161.97903 0.688923538
114.012045 0.400143862
116.027695 0.152001917
179.989595 0.03416447

NAME: Silthiofam
PRECURSORMZ: 268.118588
PRECURSORTYPE: [M+H]+
INSTRUMENTTYPE: 
INSTRUMENT: 
Authors: 
License: 
SMILES: 
INCHI: 
INCHIKEY: 
COLLISIONENERGY: 
FORMULA: C13H21NOSSi
RETENTIONTIME: 8.216433333333333
IONMODE: Positive
MASSBANKACCESSION: 
Links: 
Comment: C12H17NOSSi C9H12OSSi C7H6OS C9H11NSSi C9H11NOSSi C8H9NOSSi C9H13NOSSi C9H9NSSi C7H8SSi C9H10SSi C8H12SSi C6H6S C9H8S C9H11NOSi C9H10 C8H9OSSi C9H10OSSi C8H10SSi C9H10S C8H8SSi C7H6OSSi C7H7NOSi 
Num Peaks: 22
252.087288 1.0
197.045089 0.829145193
139.021212 0.716627061
194.045423 0.567981899
210.040338 0.49322593200000003
196.024688 0.390891194
212.055988 0.199138865
192.029773 0.09632159
153.018874 0.08663375699999999
179.034524 0.07402806
169.050174 0.063843213
111.026298 0.060231987
149.041948 0.054266732000000005
178.068267 0.04628633
119.08552700000001 0.043762296
182.021614 0.040742736
195.029439 0.039738316
167.034524 0.038254704
151.057598 0.033703278999999996
165.018874 0.031216362
166.998139 0.031139156
150.036967 0.030325526000000002

NAME: Diethofencarb
PRECURSORMZ: 268.154335
PRECURSORTYPE: [M+H]+
INSTRUMENTTYPE: 
INSTRUMENT: 
Authors: 
License: 
SMILES: 
INCHI: 
INCHIKEY: 
COLLISIONENERGY: 
FORMULA: C14H21NO4
RETENTIONTIME: 7.26695
IONMODE: Positive
MASSBANKACCESSION: 
Links: 
Comment: C6H5NO2 C8H9NO2 C10H13NO2 C9H9NO3 C6H5NO C11H15NO4 C9H11NO4 
Num Peaks: 7
124.03930500000001 1.0
152.070605 0.621515751
180.10190499999996 0.238476336
180.06552 0.070088267
108.04439 0.06071987
226.107384 0.053647812
198.076084 0.039403852

NAME: Nitenpyram
PRECURSORMZ: 271.09563
PRECURSORTYPE: [M+H]+
INSTRUMENTTYPE: 
INSTRUMENT: 
Authors: 
License: 
SMILES: 
INCHI: 
INCHIKEY: 
COLLISIONENERGY: 
FORMULA: C11H15ClN4O2
RETENTIONTIME: 4.5000333333333336
IONMODE: Positive
MASSBANKACCESSION: 
Links: 
Comment: C11H14ClN3 C9H10ClN3 C6H4ClN C8H9ClN2 C10H12ClN3 C10H11ClN2 C9H7ClN2 C9H9ClN2 C11H15ClN3 C6H5ClN2 C8H6ClN C6H3ClN2 C11H13N3 C10H9ClN2 C9H9N3 C8H6ClN2 C7H5ClN2 C8H8N2 C9H8N2 C8H7ClN C11H14N3 C10H10N2 C8H5ClN2 C7H4ClN C7H7ClN2 
Num Peaks: 25
224.094902 1.0
196.063601 0.9118291140000001
126.010503 0.644578338
169.052702 0.594742596
210.079252 0.28915661600000003
195.068352 0.213033959
179.03705199999996 0.178532317
181.052702 0.129244253
225.102727 0.120481931
141.021402 0.113389924
152.026153 0.101314351
139.005752 0.098576121
188.118224 0.090361446
193.052702 0.082146771
160.086924 0.079408541
166.029227 0.076122671
153.021402 0.066812709
133.076025 0.065717414
145.07602499999996 0.057502739000000004
153.033978 0.057502739000000004
189.126049 0.041073386
159.091675 0.038335159
165.021402 0.037787512
138.010503 0.032858707
155.03705199999996 0.032858707

NAME: Methoprotryne
PRECURSORMZ: 272.153958
PRECURSORTYPE: [M+H]+
INSTRUMENTTYPE: 
INSTRUMENT: 
Authors: 
License: 
SMILES: 
INCHI: 
INCHIKEY: 
COLLISIONENERGY: 
FORMULA: C11H21N5OS
RETENTIONTIME: 6.91445
IONMODE: Positive
MASSBANKACCESSION: 
Links: 
Comment: C5H7N5S C7H11N5S C10H17N5S C5H8N4 C8H15N5OS C8H13N5S C3H5N3S 
Num Peaks: 7
170.049493 1.0
198.080793 0.862482667
240.127743 0.45191836399999996
125.082173 0.21266016399999998
230.107008 0.171368137
212.096443 0.155310124
116.027695 0.04842203900000001

NAME: Oxadixyl
PRECURSORMZ: 279.133934
PRECURSORTYPE: [M+H]+
INSTRUMENTTYPE: 
INSTRUMENT: 
Authors: 
License: 
SMILES: 
INCHI: 
INCHIKEY: 
COLLISIONENERGY: 
FORMULA: C14H18N2O4
RETENTIONTIME: 5.599616666666666
IONMODE: Positive
MASSBANKACCESSION: 
Links: 
Comment: C9H9N C9H10N C12H14N2O2 C9H10 C8H6N C8H7N C8H9N C8H8 
Num Peaks: 8
132.080776 1.0
133.088601 0.412075669
219.112804 0.12318664
119.08552700000001 0.08304940200000001
117.057301 0.071454197
118.065126 0.05440826
120.080776 0.04796648
105.069877 0.035380233

NAME: Pendimethalin (Penoxalin)
PRECURSORMZ: 282.144833
PRECURSORTYPE: [M+H]+
INSTRUMENTTYPE: 
INSTRUMENT: 
Authors: 
License: 
SMILES: 
INCHI: 
INCHIKEY: 
COLLISIONENERGY: 
FORMULA: C13H19N3O4
RETENTIONTIME: 9.670033333333333
IONMODE: Positive
MASSBANKACCESSION: 
Links: 
Comment: C8H9N3O4 C8H7N3O3 C8H7N2O C7H6N2 C8H6N2O C8H7N3O2 C7H5N2 C8H7N2O2 C8H5N2 C7H4N C7H4N2 C6H4N2 C7H5N3 C8H4N2 C6H5N3 C8H5N3O C8H5N3O2 C7H7N2O C6H2N2 C7H7N2 C6H4N2O C7H5N C7H3N3 C7H6N2O C8H7NO C7H4N2O C8H4N2O C6H5NO 
Num Peaks: 28
212.066582 1.0
194.056018 0.866414487
148.063114 0.629106104
119.060375 0.390527576
147.05528899999996 0.378857255
178.061103 0.329882532
118.05255 0.256818622
164.058029 0.10352379099999999
130.05255 0.10075253199999999
103.041651 0.099542104
117.044725 0.09297233099999999
105.044725 0.086999804
132.055624 0.08580529699999999
129.044725 0.082221776
120.055624 0.072436795
160.05053799999996 0.071471229
176.045453 0.070475809
136.063114 0.068684056
103.029075 0.065813258
120.0682 0.05950228900000001
121.039639 0.056175592999999996
104.04947600000001 0.054156877
130.039974 0.048618358
135.055289 0.048576549000000004
134.06004 0.047780212
133.039639 0.041807685
145.039639 0.038821422
108.04439 0.035835158

NAME: Fosthiazate
PRECURSORMZ: 284.053849
PRECURSORTYPE: [M+H]+
INSTRUMENTTYPE: 
INSTRUMENT: 
Authors: 
License: 
SMILES: 
INCHI: 
INCHIKEY: 
COLLISIONENERGY: 
FORMULA: C9H18NO3PS2
RETENTIONTIME: 6.3296
IONMODE: Positive
MASSBANKACCESSION: 
Links: 
Comment: C3H5NOS C2H4NPS2 C3H4NO2PS2 C3H6NO3PS2 C5H10NO3PS2 
Num Peaks: 5
104.016461 1.0
137.959554 0.07939336400000001
181.949383 0.062474365999999996
199.959948 0.061696857
227.991248 0.038141668

NAME: Ethofumesate
PRECURSORMZ: 287.094771
PRECURSORTYPE: [M+H]+
INSTRUMENTTYPE: 
INSTRUMENT: 
Authors: 
License: 
SMILES: 
INCHI: 
INCHIKEY: 
COLLISIONENERGY: 
FORMULA: C13H18O5S
RETENTIONTIME: 7.708216666666667
IONMODE: Positive
MASSBANKACCESSION: 
Links: 
Comment: C8H8O C10H8O2 C9H8O C8H8O2 C8H8 C10H10O3 C10H8O C8H6 C10H10O2 
Num Peaks: 9
121.06479099999999 1.0
161.059706 0.35943278700000003
133.064791 0.21948212399999997
137.059706 0.101726264
105.069877 0.092478424
179.070271 0.092478424
145.064791 0.083230577
103.054227 0.064734899
163.075356 0.036991368999999996

NAME: Myclobutanil
PRECURSORMZ: 289.121451
PRECURSORTYPE: [M+H]+
INSTRUMENTTYPE: 
INSTRUMENT: 
Authors: 
License: 
SMILES: 
INCHI: 
INCHIKEY: 
COLLISIONENERGY: 
FORMULA: C15H17ClN4
RETENTIONTIME: 7.467133333333334
IONMODE: Positive
MASSBANKACCESSION: 
Links: 
Comment: C7H5Cl C9H7Cl C13H14ClN 
Num Peaks: 3
125.01525400000001 1.0
151.030904 0.234752595
220.088754 0.036688555

NAME: Isoprothiolane
PRECURSORMZ: 291.071928
PRECURSORTYPE: [M+H]+
INSTRUMENTTYPE: 
INSTRUMENT: 
Authors: 
License: 
SMILES: 
INCHI: 
INCHIKEY: 
COLLISIONENERGY: 
FORMULA: C12H18O4S2
RETENTIONTIME: 7.928633333333334
IONMODE: Positive
MASSBANKACCESSION: 
Links: 
Comment: C6H4O3S2 C5H4OS2 C9H10O3S2 C6H4O2S2 
Num Peaks: 4
188.967462 1.0
144.977633 0.30585581100000003
231.014413 0.062728703
172.97254799999996 0.058008738

NAME: Chloroxuron
PRECURSORMZ: 291.089482
PRECURSORTYPE: [M+H]+
INSTRUMENTTYPE: 
INSTRUMENT: 
Authors: 
License: 
SMILES: 
INCHI: 
INCHIKEY: 
COLLISIONENERGY: 
FORMULA: C15H15ClN2O2
RETENTIONTIME: 7.345616666666667
IONMODE: Positive
MASSBANKACCESSION: 
Links: 
Comment: C12H8ClNO C10H7Cl C10H7 C9H11N2O C8H7N C11H8ClN C10H6 C9H8NO C8H8N C11H8N C6H3Cl C7H7N C13H8ClNO2 
Num Peaks: 13
218.036718 1.0
163.030904 0.372531205
128.062052 0.16390465199999998
164.094414 0.15891033400000001
118.065126 0.11078320400000001
190.041803 0.079001136
127.054227 0.078093074
147.067865 0.061293985999999995
119.072951 0.057888761
155.07295099999996 0.047673099000000004
110.999604 0.040862657000000004
106.065126 0.037457436000000004
246.031633 0.034052212000000005

NAME: Thiametoxam
PRECURSORMZ: 292.026564
PRECURSORTYPE: [M+H]+
INSTRUMENTTYPE: 
INSTRUMENT: 
Authors: 
License: 
SMILES: 
INCHI: 
INCHIKEY: 
COLLISIONENERGY: 
FORMULA: C8H10ClN5O3S
RETENTIONTIME: 4.026466666666667
IONMODE: Positive
MASSBANKACCESSION: 
Links: 
Comment: C7H8N4S C4H2ClNS C6H5N3S C6H7N3 C7H7N4S C6H4N3S C5H5N3 C5H4N2S C7H4ClN C8H8ClN 
Num Peaks: 10
181.054244 1.0
131.966924 0.796094537
152.027695 0.43274223799999995
122.071274 0.18272236
180.04641899999996 0.104575165
151.01987 0.100123145
108.055624 0.094811022
125.01679600000001 0.090556026
138.010503 0.035805628
154.04180299999996 0.034005873

NAME: Cyproconazole
PRECURSORMZ: 292.121116
PRECURSORTYPE: [M+H]+
INSTRUMENTTYPE: 
INSTRUMENT: 
Authors: 
License: 
SMILES: 
INCHI: 
INCHIKEY: 
COLLISIONENERGY: 
FORMULA: C15H18ClN3O
RETENTIONTIME: 7.2749500000000005
IONMODE: Positive
MASSBANKACCESSION: 
Links: 
Comment: C7H3ClO C6H3Cl C11H8 
Num Peaks: 3
138.994519 1.0
110.999604 0.13636364
141.069877 0.13636364

NAME: Nitenpyram
PRECURSORMZ: 293.077574
PRECURSORTYPE: [M+Na]+
INSTRUMENTTYPE: 
INSTRUMENT: 
Authors: 
License: 
SMILES: 
INCHI: 
INCHIKEY: 
COLLISIONENERGY: 
FORMULA: C11H15ClN4O2
RETENTIONTIME: 6.013866666666667
IONMODE: Positive
MASSBANKACCESSION: 
Links: 
Comment: C11H13ClN4O C10H9ClN4 C4H8N2O2 C7H8N3 C3H6N2O2 C8H4N C3H4N2O 
Num Peaks: 7
275.067009 1.0
243.040795 0.7074542640000001
139.047798 0.317862153
157.061043 0.132208154
125.032148 0.042194095
137.023595 0.042194095
107.021583 0.039381154

NAME: Triadimefon
PRECURSORMZ: 294.100381
PRECURSORTYPE: [M+H]+
INSTRUMENTTYPE: 
INSTRUMENT: 
Authors: 
License: 
SMILES: 
INCHI: 
INCHIKEY: 
COLLISIONENERGY: 
FORMULA: C14H16ClN3O2
RETENTIONTIME: 7.565766666666667
IONMODE: Positive
MASSBANKACCESSION: 
Links: 
Comment: C11H13ClO C7H5ClO C6H5ClO C8H7ClO C12H13ClO2 C6H3Cl C6H5Cl C11H12O 
Num Peaks: 8
197.072769 1.0
141.010169 0.856710017
129.010169 0.479593664
155.025819 0.435403675
225.067684 0.164141864
110.999604 0.0951702
113.01525400000001 0.088576011
161.096091 0.042773124

NAME: Paclobutrazol
PRECURSORMZ: 294.136766
PRECURSORTYPE: [M+H]+
INSTRUMENTTYPE: 
INSTRUMENT: 
Authors: 
License: 
SMILES: 
INCHI: 
INCHIKEY: 
COLLISIONENERGY: 
FORMULA: C15H20ClN3O
RETENTIONTIME: 7.086366666666667
IONMODE: Positive
MASSBANKACCESSION: 
Links: 
Comment: C7H5Cl C10H9Cl C8H7Cl C10H9 C10H8 C8H6 C8H5Cl C9H7Cl 
Num Peaks: 8
125.01525400000001 1.0
165.04655399999996 0.346873641
139.030904 0.167271137
130.077702 0.102277674
129.069877 0.056579139
103.054227 0.053677645
137.01525400000003 0.050050776
151.030904 0.041346293

NAME: Triadimenol
PRECURSORMZ: 296.116031
PRECURSORTYPE: [M+H]+
INSTRUMENTTYPE: 
INSTRUMENT: 
Authors: 
License: 
SMILES: 
INCHI: 
INCHIKEY: 
COLLISIONENERGY: 
FORMULA: C14H18ClN3O2
RETENTIONTIME: 7.174433333333334
IONMODE: Positive
MASSBANKACCESSION: 
Links: 
Comment: C7H5ClO C10H9ClO 
Num Peaks: 2
141.010169 1.0
181.041469 0.666666687

NAME: Quinalfos
PRECURSORMZ: 299.061376
PRECURSORTYPE: [M+H]+
INSTRUMENTTYPE: 
INSTRUMENT: 
Authors: 
License: 
SMILES: 
INCHI: 
INCHIKEY: 
COLLISIONENERGY: 
FORMULA: C12H15N2O3PS
RETENTIONTIME: 8.353466666666668
IONMODE: Positive
MASSBANKACCESSION: 
Links: 
Comment: C8H6N2O C8H6N2S C8H4N2 C7H6N2 C8H7N2O3PS C8H5N2O2PS C2H5O2PS 
Num Peaks: 7
147.05528899999996 1.0
163.032446 0.958131492
129.044725 0.24583989399999998
119.060375 0.19771134899999998
242.998776 0.158591077
224.988211 0.130434364
124.982063 0.07544825200000001

NAME: Azaconazole
PRECURSORMZ: 300.030108
PRECURSORTYPE: [M+H]+
INSTRUMENTTYPE: 
INSTRUMENT: 
Authors: 
License: 
SMILES: 
INCHI: 
INCHIKEY: 
COLLISIONENERGY: 
FORMULA: C12H11Cl2N3O2
RETENTIONTIME: 6.471116666666666
IONMODE: Positive
MASSBANKACCESSION: 
Links: 
Comment: C7H4Cl2 C10H8Cl2O2 C7H2Cl2O 
Num Peaks: 3
158.976282 1.0
230.997411 0.127872571
172.955546 0.031591475

NAME: Phospamidon (Mix of isomers)
PRECURSORMZ: 300.076213
PRECURSORTYPE: [M+H]+
INSTRUMENTTYPE: 
INSTRUMENT: 
Authors: 
License: 
SMILES: 
INCHI: 
INCHIKEY: 
COLLISIONENERGY: 
FORMULA: C10H19ClNO5P
RETENTIONTIME: 5.383349999999999
IONMODE: Positive
MASSBANKACCESSION: 
Links: 
Comment: C3H7ClO3 C6H10ClN C8H12ClNO C5H9NO C4H6ClN C3H5ClO2 C6H8ClO5P C6H8ClNO C6H7NO 
Num Peaks: 9
127.01564800000001 1.0
132.057453 0.276474088
174.068018 0.27487126
100.07569 0.095848136
104.026153 0.088604882
109.005084 0.087348349
226.987064 0.046315558
146.036718 0.045582267999999995
110.06004 0.031909954

NAME: Tolclosof methyl
PRECURSORMZ: 300.961634
PRECURSORTYPE: [M+H]+
INSTRUMENTTYPE: 
INSTRUMENT: 
Authors: 
License: 
SMILES: 
INCHI: 
INCHIKEY: 
COLLISIONENERGY: 
FORMULA: C9H11Cl2O3PS
RETENTIONTIME: 8.836416666666667
IONMODE: Positive
MASSBANKACCESSION: 
Links: 
Comment: C7H4Cl2O C8H7Cl2O2PS C7H4Cl2O2PS C6H3Cl C6H4Cl2 C7H4ClO2PS C8H7ClOS C6H4ClOPS C6H4Cl C6H4ClS 
Num Peaks: 10
174.97119699999996 1.0
268.935419 0.42821934799999994
253.911944 0.193571582
110.999604 0.162045598
146.976282 0.139042929
218.943091 0.089956872
186.99789 0.043624975
190.948177 0.039946601
112.007429 0.035428219
143.9795 0.031936742000000004

NAME: Desmedipham
PRECURSORMZ: 301.118283
PRECURSORTYPE: [M+H]+
INSTRUMENTTYPE: 
INSTRUMENT: 
Authors: 
License: 
SMILES: 
INCHI: 
INCHIKEY: 
COLLISIONENERGY: 
FORMULA: C16H16N2O4
RETENTIONTIME: 7.10955
IONMODE: Positive
MASSBANKACCESSION: 
Links: 
Comment: C7H5NO2 C7H7NO3 C6H5NO C9H11NO3 
Num Peaks: 4
136.039305 1.0
154.04987 0.241399318
108.04439 0.154687881
182.08117 0.031915776

NAME: Phenmediphan
PRECURSORMZ: 301.118283
PRECURSORTYPE: [M+H]+
INSTRUMENTTYPE: 
INSTRUMENT: 
Authors: 
License: 
SMILES: 
INCHI: 
INCHIKEY: 
COLLISIONENERGY: 
FORMULA: C16H16N2O4
RETENTIONTIME: 7.122066666666667
IONMODE: Positive
MASSBANKACCESSION: 
Links: 
Comment: C7H5NO2 C6H5NO C8H9NO3 
Num Peaks: 3
136.039305 1.0
108.04439 0.15609641400000002
168.06552 0.040809768999999996

NAME: Bifenazate
PRECURSORMZ: 301.154669
PRECURSORTYPE: [M+H]+
INSTRUMENTTYPE: 
INSTRUMENT: 
Authors: 
License: 
SMILES: 
INCHI: 
INCHIKEY: 
COLLISIONENERGY: 
FORMULA: C17H20N2O3
RETENTIONTIME: 7.7719000000000005
IONMODE: Positive
MASSBANKACCESSION: 
Links: 
Comment: C12H11N C12H8 C12H9NO C13H11NO C11H9N C12H9N C11H8 C10H7 C12H6 C11H10 C13H9NO C11H8N C11H7N 
Num Peaks: 13
170.096426 1.0
153.069877 0.50576365
184.07569 0.331799418
198.09134 0.167364195
156.08077599999996 0.15069168800000002
168.08077599999996 0.120015822
141.069877 0.10075582599999999
128.062052 0.094738379
151.054227 0.09330627300000001
143.085527 0.064380452
196.07569 0.044662379
155.07295099999996 0.036224
154.065126 0.030714388999999998

NAME: Fenhexamid
PRECURSORMZ: 302.070911
PRECURSORTYPE: [M+H]+
INSTRUMENTTYPE: 
INSTRUMENT: 
Authors: 
License: 
SMILES: 
INCHI: 
INCHIKEY: 
COLLISIONENERGY: 
FORMULA: C14H17Cl2NO2
RETENTIONTIME: 7.643433333333333
IONMODE: Positive
MASSBANKACCESSION: 
Links: 
Comment: C6H5ClNO C6H5Cl2NO C6H4ClNO C14H15Cl2NO 
Num Peaks: 4
143.013243 1.0
177.982096 0.530220926
142.005418 0.46102541700000005
284.060346 0.037515633

NAME: Flutriafol
PRECURSORMZ: 302.109945
PRECURSORTYPE: [M+H]+
INSTRUMENTTYPE: 
INSTRUMENT: 
Authors: 
License: 
SMILES: 
INCHI: 
INCHIKEY: 
COLLISIONENERGY: 
FORMULA: C16H13F2N3O
RETENTIONTIME: 6.288733333333334
IONMODE: Positive
MASSBANKACCESSION: 
Links: 
Comment: C10H2 C7H5F C14H10F2O C8H5FO C14H8F2 C14H7F 
Num Peaks: 6
123.022927 1.0
109.044805 0.323354065
233.077248 0.094221339
137.039719 0.049731094
215.066683 0.04318459
195.060455 0.030020947000000003

NAME: Fenamiphos
PRECURSORMZ: 304.113078
PRECURSORTYPE: [M+H]+
INSTRUMENTTYPE: 
INSTRUMENT: 
Authors: 
License: 
SMILES: 
INCHI: 
INCHIKEY: 
COLLISIONENERGY: 
FORMULA: C13H22NO3PS
RETENTIONTIME: 7.4362
IONMODE: Positive
MASSBANKACCESSION: 
Links: 
Comment: C7H6O C10H3NO2P C7H7O 
Num Peaks: 3
107.049141 1.0
200.997416 0.6441772579999999
108.056966 0.473626912

NAME: Fosthiazate
PRECURSORMZ: 306.035793
PRECURSORTYPE: [M+Na]+
INSTRUMENTTYPE: 
INSTRUMENT: 
Authors: 
License: 
SMILES: 
INCHI: 
INCHIKEY: 
COLLISIONENERGY: 
FORMULA: C9H18NO3PS2
RETENTIONTIME: 6.314183333333333
IONMODE: Positive
MASSBANKACCESSION: 
Links: 
Comment: C3H4NO2PS2 C5H10NO3PS2 C3H5NOS 
Num Peaks: 3
203.931328 1.0
249.973193 0.070496082
125.998405 0.062663183

NAME: Pirmiphos-methyl
PRECURSORMZ: 306.103576
PRECURSORTYPE: [M+H]+
INSTRUMENTTYPE: 
INSTRUMENT: 
Authors: 
License: 
SMILES: 
INCHI: 
INCHIKEY: 
COLLISIONENERGY: 
FORMULA: C11H20N3O3PS
RETENTIONTIME: 9.196266666666666
IONMODE: Positive
MASSBANKACCESSION: 
Links: 
Comment: C9H13N3 C5H5N3 C7H9N3 C2H5O2PS C9H16N3O3PS C6H8N2 
Num Peaks: 6
164.118224 1.0
108.055624 0.7101551890000001
136.086924 0.281685144
124.982063 0.202039912
278.072275 0.104390241
109.076025 0.052682925

NAME: Fenazaquin
PRECURSORMZ: 307.18049
PRECURSORTYPE: [M+H]+
INSTRUMENTTYPE: 
INSTRUMENT: 
Authors: 
License: 
SMILES: 
INCHI: 
INCHIKEY: 
COLLISIONENERGY: 
FORMULA: C20H22N2O
RETENTIONTIME: 10.200116666666666
IONMODE: Positive
MASSBANKACCESSION: 
Links: 
Comment: C12H16 C8H6N2O C11H13 C10H10 C8H8 C10H12 
Num Peaks: 6
161.132477 1.0
147.05528899999996 0.49687591200000003
146.109002 0.34855961799999996
131.085527 0.23159700600000002
105.069877 0.064281978
133.101177 0.030880152999999997

NAME: Quinoxyfen
PRECURSORMZ: 308.003974
PRECURSORTYPE: [M+H]+
INSTRUMENTTYPE: 
INSTRUMENT: 
Authors: 
License: 
SMILES: 
INCHI: 
INCHIKEY: 
COLLISIONENERGY: 
FORMULA: C15H8Cl2FNO
RETENTIONTIME: 9.464116666666666
IONMODE: Positive
MASSBANKACCESSION: 
Links: 
Comment: C9H4Cl2N C15H7ClFNO C9H5Cl2NO C9H4ClN C14H8ClFN C8H4ClN C14H7ClFN C15H7FNO C14H8Cl2FN C15H7Cl2NO C14H7FN C8H4Cl2N C14H7ClN C14H8FN 
Num Peaks: 14
196.979356 1.0
272.027296 0.633225739
213.982096 0.5156345960000001
162.010503 0.28749966600000004
245.040207 0.185015231
150.010503 0.13250041
244.032382 0.123791896
237.058444 0.098035909
280.009059 0.06716593400000001
287.997746 0.048543181
209.063529 0.041121211
184.979356 0.035850253
225.033978 0.033602346
210.071354 0.030404892000000003

NAME: Tebuconazole
PRECURSORMZ: 308.152416
PRECURSORTYPE: [M+H]+
INSTRUMENTTYPE: 
INSTRUMENT: 
Authors: 
License: 
SMILES: 
INCHI: 
INCHIKEY: 
COLLISIONENERGY: 
FORMULA: C16H22ClN3O
RETENTIONTIME: 7.791516666666666
IONMODE: Positive
MASSBANKACCESSION: 
Links: 
Comment: C7H5Cl C9H7Cl C8H7Cl C10H9Cl C9H7 C10H9 C9H6 C10H8 C11H11Cl 
Num Peaks: 9
125.01525400000001 1.0
151.030904 0.420213044
139.030904 0.13830848
165.04655399999996 0.102155454
116.062052 0.079505123
130.077702 0.05005803
115.054227 0.033372017999999996
129.069877 0.033372017999999996
179.062204 0.033372017999999996

NAME: Fenamidone
PRECURSORMZ: 312.11651
PRECURSORTYPE: [M+H]+
INSTRUMENTTYPE: 
INSTRUMENT: 
Authors: 
License: 
SMILES: 
INCHI: 
INCHIKEY: 
COLLISIONENERGY: 
FORMULA: C17H17N3OS
RETENTIONTIME: 7.526083333333333
IONMODE: Positive
MASSBANKACCESSION: 
Links: 
Comment: C15H13N3 C9H9O C8H6 C8H9N C14H10N3 C8H8N2 C14H14N2 C14H11N C11H9O C15H11NO C9H8N2O C15H10N2 C16H13N3O 
Num Peaks: 13
236.118224 1.0
134.072616 0.366054893
103.054227 0.28729826199999997
120.080776 0.113983631
221.094749 0.106749035
133.076025 0.09376739
211.122975 0.093573004
194.096426 0.08555454800000001
158.072616 0.056809578
222.09134 0.047770586
161.070939 0.041185729
219.091675 0.032164961
264.113138 0.031757966

NAME: Isoprothiolane
PRECURSORMZ: 313.053872
PRECURSORTYPE: [M+Na]+
INSTRUMENTTYPE: 
INSTRUMENT: 
Authors: 
License: 
SMILES: 
INCHI: 
INCHIKEY: 
COLLISIONENERGY: 
FORMULA: C12H18O4S2
RETENTIONTIME: 7.928633333333334
IONMODE: Positive
MASSBANKACCESSION: 
Links: 
Comment: C5H4OS2 C3H6OS2 C9H12O4S2 
Num Peaks: 3
166.959577 1.0
144.97522799999996 0.12105511099999999
271.006922 0.070654735

NAME: Hexaconazole
PRECURSORMZ: 314.082144
PRECURSORTYPE: [M+H]+
INSTRUMENTTYPE: 
INSTRUMENT: 
Authors: 
License: 
SMILES: 
INCHI: 
INCHIKEY: 
COLLISIONENERGY: 
FORMULA: C14H17Cl2N3O
RETENTIONTIME: 8.00825
IONMODE: Positive
MASSBANKACCESSION: 
Links: 
Comment: C7H4Cl2 C7H5Cl C7H4Cl2O C9H6Cl C9H6Cl2 C9H5Cl C8H5ClO C6H4Cl2 
Num Peaks: 8
158.976282 1.0
125.01525400000001 0.124706574
174.97119699999996 0.111697964
150.023079 0.086561032
184.991932 0.083137713
149.015254 0.059663537999999995
153.010169 0.04450313
146.976282 0.034820031

NAME: Kresoxim-methyl
PRECURSORMZ: 314.138685
PRECURSORTYPE: [M+H]+
INSTRUMENTTYPE: 
INSTRUMENT: 
Authors: 
License: 
SMILES: 
INCHI: 
INCHIKEY: 
COLLISIONENERGY: 
FORMULA: C18H19NO4
RETENTIONTIME: 8.324983333333334
IONMODE: Positive
MASSBANKACCESSION: 
Links: 
Comment: C15H11NO C15H12NO C14H11N C9H8N C16H10O2 C8H5N C15H11O C13H9N C14H9 C14H10 C12H14O3 C9H7NO C14H10N C9H7N C13H8 C15H9N C9H9N C14H12N C14H7NO C8H7N C12H7 C14H10O C14H8 C8H6N C15H8N C13H7O C16H15NO C14H7 C8H6O2 C8H8 C14H7N C15H11N C12H8 C15H10 C12H6 C16H15NO2 C15H13NO C8H8O C12H9N C15H9NO C16H13NO C14H9N C13H8O 
Num Peaks: 43
222.09134 1.0
223.099165 0.706818163
194.096426 0.584097981
131.072951 0.513480306
235.075356 0.478128403
116.04947600000001 0.43037650000000005
208.088266 0.397590756
180.08077599999996 0.3857207
178.07770199999996 0.34007695299999996
179.085527 0.297898561
207.101571 0.220236033
146.06003999999996 0.202551261
193.088601 0.175379843
130.065126 0.169498533
165.069877 0.165212005
204.080776 0.161798269
132.080776 0.153230384
195.104251 0.127970353
206.06004 0.11434178800000001
118.065126 0.111398026
152.062052 0.108299337
195.080441 0.10519082800000001
177.069877 0.101014301
117.057301 0.079119973
203.072951 0.075814702
180.05696599999996 0.072241388
238.122641 0.054123845
176.062052 0.053039301
135.044056 0.0500439
105.069877 0.046893559
190.065126 0.046118885
206.096426 0.045302898
153.069877 0.041419201
191.085527 0.040386304
151.054227 0.039559986
254.117555 0.034550432
224.10699 0.033672467000000005
121.06479099999999 0.033156019
168.08077599999996 0.032123122000000004
220.07569 0.031400092000000004
236.10699 0.031059237000000003
192.080776 0.030212261
181.064791 0.030075401

NAME: Malaoxon
PRECURSORMZ: 315.066187
PRECURSORTYPE: [M+H]+
INSTRUMENTTYPE: 
INSTRUMENT: 
Authors: 
License: 
SMILES: 
INCHI: 
INCHIKEY: 
COLLISIONENERGY: 
FORMULA: C10H19O7PS
RETENTIONTIME: 5.9703
IONMODE: Positive
MASSBANKACCESSION: 
Links: 
Comment: C6H6O3 C2H5O2PS C2H7O3PS CH3O2PS C4H4O4 C2H5O3P C5H7O4PS C6H8O4 
Num Peaks: 8
127.038971 1.0
124.982063 0.535087705
142.992628 0.461119026
110.966413 0.22380718600000002
117.018235 0.171257585
109.004907 0.119199872
194.987543 0.105017215
145.049535 0.08099688599999999

NAME: Flusilazole
PRECURSORMZ: 316.107607
PRECURSORTYPE: [M+H]+
INSTRUMENTTYPE: 
INSTRUMENT: 
Authors: 
License: 
SMILES: 
INCHI: 
INCHIKEY: 
COLLISIONENERGY: 
FORMULA: C16H15F2N3Si
RETENTIONTIME: 7.822566666666666
IONMODE: Positive
MASSBANKACCESSION: 
Links: 
Comment: C13H8 C14H12F2Si C12H8F2Si C8H7FSi C13H9F C13H7F C6H5FSi C13H7 C8H8F2Si C12H7FSi C14H11FSi C8H5FSi 
Num Peaks: 12
165.069877 1.0
247.07491 0.447225124
219.04361 0.290621787
151.037381 0.163964942
185.076105 0.13879038400000002
183.060455 0.082712315
125.021731 0.080909632
164.062052 0.058534268
171.04361 0.053572666
199.037381 0.052229099
227.068682 0.048542529
149.02173099999996 0.031295232

NAME: Bupirimate
PRECURSORMZ: 317.164188
PRECURSORTYPE: [M+H]+
INSTRUMENTTYPE: 
INSTRUMENT: 
Authors: 
License: 
SMILES: 
INCHI: 
INCHIKEY: 
COLLISIONENERGY: 
FORMULA: C13H24N4O3S
RETENTIONTIME: 9.2014
IONMODE: Positive
MASSBANKACCESSION: 
Links: 
Comment: C8H11N3O C11H19N3O C11H17N3O C11H17N3O3S C8H11N3 C9H12N2O C8H13NO C10H15N3O C11H16N2O C10H14O2 C9H15N3O C11H17N3 C6H7N3O C11H18N3O C10H17N3 C8H10O2 C9H11O2 C8H9N3 C12H21N3O 
Num Peaks: 19
166.097488 1.0
210.160089 0.643404603
208.144439 0.39636385399999996
272.106339 0.261135131
150.102574 0.25508675
165.102239 0.219303012
140.10699 0.20814624399999998
194.128789 0.131772801
193.13354 0.112144947
167.10665599999996 0.09539978199999999
182.128789 0.06747563200000001
192.149524 0.053381215999999995
138.066188 0.04810968400000001
209.152264 0.047855537000000004
180.149524 0.039730716
139.07535600000003 0.039564247999999996
152.083181 0.036900736
148.086924 0.034403693
224.175739 0.034161761

NAME: Phosmet
PRECURSORMZ: 318.001813
PRECURSORTYPE: [M+H]+
INSTRUMENTTYPE: 
INSTRUMENT: 
Authors: 
License: 
SMILES: 
INCHI: 
INCHIKEY: 
COLLISIONENERGY: 
FORMULA: C11H12NO4PS2
RETENTIONTIME: 7.32885
IONMODE: Positive
MASSBANKACCESSION: 
Links: 
Comment: C9H5NO2 C8H4O2 C7H4O C8H3NO 
Num Peaks: 4
160.039305 1.0
133.028406 0.188812345
105.033491 0.035308965
130.02874000000003 0.034213647

NAME: Guthion
PRECURSORMZ: 318.013046
PRECURSORTYPE: [M+H]+
INSTRUMENTTYPE: 
INSTRUMENT: 
Authors: 
License: 
SMILES: 
INCHI: 
INCHIKEY: 
COLLISIONENERGY: 
FORMULA: C10H12N3O3PS2
RETENTIONTIME: 7.197766666666666
IONMODE: Positive
MASSBANKACCESSION: 
Links: 
Comment: C8H5NO C2H5O2PS C7H5N C7H4O C4H9NO2PS C7H3N C7H4OS 
Num Peaks: 7
132.04439 1.0
124.982063 0.79708308
104.04947600000001 0.5414014460000001
105.033491 0.454423994
167.016438 0.106531389
102.033826 0.063751847
137.005562 0.038046926

NAME: Triticonazole
PRECURSORMZ: 318.136766
PRECURSORTYPE: [M+H]+
INSTRUMENTTYPE: 
INSTRUMENT: 
Authors: 
License: 
SMILES: 
INCHI: 
INCHIKEY: 
COLLISIONENERGY: 
FORMULA: C17H20ClN3O
RETENTIONTIME: 7.297366666666666
IONMODE: Positive
MASSBANKACCESSION: 
Links: 
Comment: C7H5Cl C12H11Cl C12H9Cl C10H7Cl C11H7Cl C10H7 C15H15Cl C11H8 C10H6 C12H9 C11H9Cl C15H15 
Num Peaks: 12
125.01525400000001 1.0
191.062204 0.222015187
189.046554 0.169274747
163.030904 0.157905549
175.030904 0.142114982
128.062052 0.090006158
231.093505 0.061583161
141.069877 0.06031991900000001
127.054227 0.047371663
154.07770199999996 0.03789733
177.04655399999996 0.033160165
196.124652 0.033160165

NAME: Metconazole
PRECURSORMZ: 320.152416
PRECURSORTYPE: [M+H]+
INSTRUMENTTYPE: 
INSTRUMENT: 
Authors: 
License: 
SMILES: 
INCHI: 
INCHIKEY: 
COLLISIONENERGY: 
FORMULA: C17H22ClN3O
RETENTIONTIME: 8.054883333333333
IONMODE: Positive
MASSBANKACCESSION: 
Links: 
Comment: C7H5Cl C11H9Cl C11H9 C9H7Cl C15H17Cl C12H11Cl 
Num Peaks: 6
125.01525400000001 1.0
177.04655399999996 0.19174040899999997
142.077702 0.07374631599999999
151.030904 0.07374631599999999
233.109155 0.07374631599999999
191.062204 0.05899705

NAME: Phenthoate
PRECURSORMZ: 321.037864
PRECURSORTYPE: [M+H]+
INSTRUMENTTYPE: 
INSTRUMENT: 
Authors: 
License: 
SMILES: 
INCHI: 
INCHIKEY: 
COLLISIONENERGY: 
FORMULA: C12H17O4PS2
RETENTIONTIME: 8.540533333333334
IONMODE: Positive
MASSBANKACCESSION: 
Links: 
Comment: C7H6O C2H5O2PS C8H6O2 C9H10O C10H10O2 C9H11O2PS2 C8H6OS 
Num Peaks: 7
107.049141 1.0
124.982063 0.978631079
135.044056 0.906401455
135.080441 0.12164627
163.075356 0.110825539
247.001085 0.07542064799999999
151.021212 0.060476493

NAME: Iprovalicarb
PRECURSORMZ: 321.217269
PRECURSORTYPE: [M+H]+
INSTRUMENTTYPE: 
INSTRUMENT: 
Authors: 
License: 
SMILES: 
INCHI: 
INCHIKEY: 
COLLISIONENERGY: 
FORMULA: C18H28N2O3
RETENTIONTIME: 7.367366666666666
IONMODE: Positive
MASSBANKACCESSION: 
Links: 
Comment: C9H10 C5H9NO2 C9H8 
Num Peaks: 3
119.08552700000001 1.0
116.070605 0.144318342
117.069877 0.08553157

NAME: Pyripoxyfen
PRECURSORMZ: 322.14377
PRECURSORTYPE: [M+H]+
INSTRUMENTTYPE: 
INSTRUMENT: 
Authors: 
License: 
SMILES: 
INCHI: 
INCHIKEY: 
COLLISIONENERGY: 
FORMULA: C20H19NO3
RETENTIONTIME: 9.541483333333334
IONMODE: Positive
MASSBANKACCESSION: 
Links: 
Comment: C12H8O2 C10H8 C9H9O C8H6O C10H7 C15H14O2 C9H8O C11H8O C11H8 C13H10O2 C8H8 C9H6 C10H6 C12H9O C13H8O 
Num Peaks: 15
185.059706 1.0
129.069877 0.470567316
134.072616 0.335811764
119.049141 0.2776995
128.062052 0.17148111800000002
227.106656 0.15959996
133.064791 0.12055326300000001
157.064791 0.11427968699999999
141.069877 0.113056511
199.075356 0.084808074
105.069877 0.055228386
115.054227 0.046034701
127.054227 0.040870059
170.072616 0.035289161
181.064791 0.033917062000000005

NAME: Bifenazate
PRECURSORMZ: 323.136613
PRECURSORTYPE: [M+Na]+
INSTRUMENTTYPE: 
INSTRUMENT: 
Authors: 
License: 
SMILES: 
INCHI: 
INCHIKEY: 
COLLISIONENERGY: 
FORMULA: C17H20N2O3
RETENTIONTIME: 7.7719000000000005
IONMODE: Positive
MASSBANKACCESSION: 
Links: 
Comment: C13H12NO C10H9 C10H10 
Num Peaks: 3
221.08111 1.0
152.05964599999996 0.583333313
153.067471 0.41666665700000005

NAME: Azamethiphos
PRECURSORMZ: 324.980933
PRECURSORTYPE: [M+H]+
INSTRUMENTTYPE: 
INSTRUMENT: 
Authors: 
License: 
SMILES: 
INCHI: 
INCHIKEY: 
COLLISIONENERGY: 
FORMULA: C9H10ClN2O5PS
RETENTIONTIME: 5.752
IONMODE: Positive
MASSBANKACCESSION: 
Links: 
Comment: C6H3ClN2 C7H3ClN2O2 C5H2ClN 
Num Peaks: 3
139.005752 1.0
182.995581 0.714613974
111.994853 0.658398509

NAME: Ethofumesate
PRECURSORMZ: 325.050653
PRECURSORTYPE: [M+K]+
INSTRUMENTTYPE: 
INSTRUMENT: 
Authors: 
License: 
SMILES: 
INCHI: 
INCHIKEY: 
COLLISIONENERGY: 
FORMULA: C13H18O5S
RETENTIONTIME: 8.278466666666667
IONMODE: Positive
MASSBANKACCESSION: 
Links: 
Comment: C9H18O3S C13H18O3 C8H14O2 C8H16O2 C10H16O3 
Num Peaks: 5
245.060824 1.0
261.088753 0.32490974699999997
181.062538 0.270758122
183.078188 0.162454873
223.073102 0.135379061

NAME: Cyazofamid
PRECURSORMZ: 325.052051
PRECURSORTYPE: [M+H]+
INSTRUMENTTYPE: 
INSTRUMENT: 
Authors: 
License: 
SMILES: 
INCHI: 
INCHIKEY: 
COLLISIONENERGY: 
FORMULA: C13H13ClN4O2S
RETENTIONTIME: 8.278466666666667
IONMODE: Positive
MASSBANKACCESSION: 
Links: 
Comment: C11H7ClN3 C11H6ClN3 C11H7N3 C10H6ClN2 C12H10ClN4 C12H9ClN4 C13H13N4 C10H6N2 C9H7N C9H6ClN C12H10N4 C13H13ClN4 C12H8N4 C10H5ClN2 C11H8ClN3 C11H6N3 C9H5N C11H8N3 
Num Peaks: 18
217.040126 1.0
216.032301 0.5785255429999999
182.071274 0.22651933100000002
190.029227 0.22375690899999998
246.066675 0.198204413
245.05885 0.191298336
226.121298 0.13432321
155.060375 0.072513811
130.065126 0.062154695
164.026153 0.062154695
211.097823 0.062154695
261.090151 0.062154695
209.082173 0.06042817599999999
189.021402 0.056975137
218.047951 0.056975137
181.063449 0.051795579
128.04947600000003 0.031077347999999998
183.079099 0.031077347999999998

NAME: Flumetsulam
PRECURSORMZ: 326.051778
PRECURSORTYPE: [M+H]+
INSTRUMENTTYPE: 
INSTRUMENT: 
Authors: 
License: 
SMILES: 
INCHI: 
INCHIKEY: 
COLLISIONENERGY: 
FORMULA: C12H9F2N5O2S
RETENTIONTIME: 4.952016666666666
IONMODE: Positive
MASSBANKACCESSION: 
Links: 
Comment: C6H4F2N C6H3F2N C12H9F2N5 C9H2FN C8H7NO 
Num Peaks: 5
129.038457 1.0
128.030632 0.058021206
262.089878 0.05358240000000001
144.024404 0.051875952999999995
134.06004 0.030647768

NAME: Dimoxystrobin
PRECURSORMZ: 327.170319
PRECURSORTYPE: [M+H]+
INSTRUMENTTYPE: 
INSTRUMENT: 
Authors: 
License: 
SMILES: 
INCHI: 
INCHIKEY: 
COLLISIONENERGY: 
FORMULA: C19H22N2O3
RETENTIONTIME: 8.052866666666667
IONMODE: Positive
MASSBANKACCESSION: 
Links: 
Comment: C8H5N C11H12N2O2 C15H12NO C8H6N 
Num Peaks: 4
116.04947600000001 1.0
205.097154 0.15807011699999998
223.099165 0.08213672
117.057301 0.030445311

NAME: Mecarbam
PRECURSORMZ: 330.059328
PRECURSORTYPE: [M+H]+
INSTRUMENTTYPE: 
INSTRUMENT: 
Authors: 
License: 
SMILES: 
INCHI: 
INCHIKEY: 
COLLISIONENERGY: 
FORMULA: C10H20NO5PS2
RETENTIONTIME: 8.20275
IONMODE: Positive
MASSBANKACCESSION: 
Links: 
Comment: CH3O2PS2 C2H5O2PS C3H7O2PS2 HO2PS2 C4H9O2PS C2H3O3PS2 C2H5O2PS2 C5H11O2PS2 C4H7O3PS2 C4H9O2PS2 C6H11O3PS2 
Num Peaks: 11
142.938484 1.0
124.982063 0.274496168
170.969785 0.240720391
128.922834 0.23935037899999997
153.013364 0.22014671600000002
170.933399 0.143395618
156.954134 0.134367168
199.001085 0.107812256
198.964699 0.101587392
184.985435 0.09601946900000001
226.995999 0.047663011

NAME: Fenarimol
PRECURSORMZ: 331.039945
PRECURSORTYPE: [M+H]+
INSTRUMENTTYPE: 
INSTRUMENT: 
Authors: 
License: 
SMILES: 
INCHI: 
INCHIKEY: 
COLLISIONENERGY: 
FORMULA: C17H12Cl2N2O
RETENTIONTIME: 7.374483333333333
IONMODE: Positive
MASSBANKACCESSION: 
Links: 
Comment: C16H10ClNO C7H3ClO C15H8Cl2 C15H8 C15H7Cl C16H10NO C15H8ClN C16H9ClN C15H9N C16H11Cl2NO C17H10ClN2 C15H10ClN C15H9ClO C16H11ClN2 C16H9NO C15H10N C16H8ClN C15H8O C13H8Cl2 C16H8ClNO C11H7ClN2O C16H9Cl2N 
Num Peaks: 22
268.052368 1.0
138.994519 0.41564068200000004
259.007582 0.400010884
189.069877 0.258637279
223.030904 0.11845394199999999
233.083515 0.097173259
238.041803 0.08974360699999999
251.049628 0.089310296
204.080776 0.084994555
304.029046 0.07852061099999999
278.060527 0.07416191
240.057453 0.068740465
241.041469 0.066732258
267.068352 0.062239598
232.07569 0.046984165999999994
205.088601 0.04246458400000001
250.041803 0.040766619
205.064791 0.040589064
235.007582 0.038394976000000004
266.036718 0.033138901
219.031967 0.031408242999999995
286.018481 0.03131466

NAME: Malathion
PRECURSORMZ: 331.043343
PRECURSORTYPE: [M+H]+
INSTRUMENTTYPE: 
INSTRUMENT: 
Authors: 
License: 
SMILES: 
INCHI: 
INCHIKEY: 
COLLISIONENERGY: 
FORMULA: C10H19O6PS2
RETENTIONTIME: 7.89035
IONMODE: Positive
MASSBANKACCESSION: 
Links: 
Comment: C2H5O2PS C6H6O3 C5H7O3PS2 C3H2OS2 C5H6OS2 C4H4O2S 
Num Peaks: 6
124.982063 1.0
127.038971 0.263335973
210.964699 0.094123945
118.961983 0.038658049
146.993283 0.032638494
117.000477 0.030019596000000003

NAME: Halofenozide
PRECURSORMZ: 331.120782
PRECURSORTYPE: [M+H]+
INSTRUMENTTYPE: 
INSTRUMENT: 
Authors: 
License: 
SMILES: 
INCHI: 
INCHIKEY: 
COLLISIONENERGY: 
FORMULA: C18H19ClN2O2
RETENTIONTIME: 7.340316666666666
IONMODE: Positive
MASSBANKACCESSION: 
Links: 
Comment: C7H4O C7H3ClO C6H3Cl 
Num Peaks: 3
105.033491 1.0
138.994519 0.622807026
110.999604 0.047454704

NAME: Isofenphos-methyl
PRECURSORMZ: 332.107992
PRECURSORTYPE: [M+H]+
INSTRUMENTTYPE: 
INSTRUMENT: 
Authors: 
License: 
SMILES: 
INCHI: 
INCHIKEY: 
COLLISIONENERGY: 
FORMULA: C14H22NO4PS
RETENTIONTIME: 8.64735
IONMODE: Positive
MASSBANKACCESSION: 
Links: 
Comment: C7H4O2 C6H3O2P C7H7O3P 
Num Peaks: 3
121.028406 1.0
138.994342 0.050357055
171.020557 0.041049816

NAME: Ipconazole
PRECURSORMZ: 334.168067
PRECURSORTYPE: [M+H]+
INSTRUMENTTYPE: 
INSTRUMENT: 
Authors: 
License: 
SMILES: 
INCHI: 
INCHIKEY: 
COLLISIONENERGY: 
FORMULA: C18H24ClN3O
RETENTIONTIME: 8.4832
IONMODE: Positive
MASSBANKACCESSION: 
Links: 
Comment: C7H5Cl C11H9Cl C8H12 C9H7Cl 
Num Peaks: 4
125.01525400000001 1.0
177.04655399999996 0.058767772999999995
109.101177 0.04265403
151.030904 0.036966822999999996

NAME: Tebufanpyrad
PRECURSORMZ: 334.168067
PRECURSORTYPE: [M+H]+
INSTRUMENTTYPE: 
INSTRUMENT: 
Authors: 
License: 
SMILES: 
INCHI: 
INCHIKEY: 
COLLISIONENERGY: 
FORMULA: C18H24ClN3O
RETENTIONTIME: 9.180583333333335
IONMODE: Positive
MASSBANKACCESSION: 
Links: 
Comment: C11H14 C4H6ClNO C7H9ClN2O C10H11 C8H8 C9H8 C4H5ClN2 
Num Peaks: 7
147.116827 1.0
120.021068 0.349576265
173.047617 0.288177967
132.093352 0.286016941
105.069877 0.127118647
117.069877 0.127118647
117.021402 0.082118638

NAME: Zoxamide
PRECURSORMZ: 336.031938
PRECURSORTYPE: [M+H]+
INSTRUMENTTYPE: 
INSTRUMENT: 
Authors: 
License: 
SMILES: 
INCHI: 
INCHIKEY: 
COLLISIONENERGY: 
FORMULA: C14H16Cl3NO2
RETENTIONTIME: 8.573516666666666
IONMODE: Positive
MASSBANKACCESSION: 
Links: 
Comment: C8H4Cl2O C7H4Cl2 C8H7Cl2NO 
Num Peaks: 3
186.971197 1.0
158.976282 0.293930739
203.997746 0.040837869

NAME: Kresoxim-methyl
PRECURSORMZ: 336.120629
PRECURSORTYPE: [M+Na]+
INSTRUMENTTYPE: 
INSTRUMENT: 
Authors: 
License: 
SMILES: 
INCHI: 
INCHIKEY: 
COLLISIONENERGY: 
FORMULA: C18H19NO4
RETENTIONTIME: 8.340483333333333
IONMODE: Positive
MASSBANKACCESSION: 
Links: 
Comment: C15H13NO C12H11 C17H16NO3 C10H9 C12H12 C16H13NO3 
Num Peaks: 6
246.088935 1.0
178.075296 0.16483517
305.102239 0.0989011
152.05964599999996 0.065934069
179.083121 0.065934069
290.078764 0.065934069

NAME: Propioconazole
PRECURSORMZ: 342.077059
PRECURSORTYPE: [M+H]+
INSTRUMENTTYPE: 
INSTRUMENT: 
Authors: 
License: 
SMILES: 
INCHI: 
INCHIKEY: 
COLLISIONENERGY: 
FORMULA: C15H17Cl2N3O2
RETENTIONTIME: 8.164133333333334
IONMODE: Positive
MASSBANKACCESSION: 
Links: 
Comment: C7H4Cl2 C8H4Cl2O C7H2Cl2O C8H6Cl2O2 
Num Peaks: 4
158.976282 1.0
186.971197 0.051516328
172.955546 0.036575206
204.981761 0.036436349

NAME: Tepraloxydim
PRECURSORMZ: 342.146662
PRECURSORTYPE: [M+H]+
INSTRUMENTTYPE: 
INSTRUMENT: 
Authors: 
License: 
SMILES: 
INCHI: 
INCHIKEY: 
COLLISIONENERGY: 
FORMULA: C17H24ClNO4
RETENTIONTIME: 7.627833333333333
IONMODE: Positive
MASSBANKACCESSION: 
Links: 
Comment: C9H11NO2 C14H19NO3 C9H9NO2 C9H8O2 C8H9NO C13H19NO2 C8H11NO C8H8O C6H7NO C8H8 C11H12O C11H12 C10H11NO C12H12O C7H9N C6H5NO2 C10H10 C9H9N C8H10 C11H10 C9H7NO C9H6O2 C12H13NO 
Num Peaks: 23
166.086255 1.0
250.14377 0.336293519
164.070605 0.17433980100000002
149.059706 0.143491477
136.07569 0.12830101
222.148855 0.12759991
138.09134 0.11240944300000001
121.06479099999999 0.088805795
110.06004 0.071044639
105.069877 0.049076889000000005
161.096091 0.045571394
145.101177 0.042065904
162.09134 0.038560412999999995
173.096091 0.03577004
108.080776 0.035054918
124.03930500000001 0.035054918
131.085527 0.035054918
132.080776 0.035054918
107.08552700000001 0.031549428
143.085527 0.031549428
146.06003999999996 0.031549428
147.044056 0.031549428
188.10699 0.031549428

NAME: Boscalid
PRECURSORMZ: 343.039945
PRECURSORTYPE: [M+H]+
INSTRUMENTTYPE: 
INSTRUMENT: 
Authors: 
License: 
SMILES: 
INCHI: 
INCHIKEY: 
COLLISIONENERGY: 
FORMULA: C18H12Cl2N2O
RETENTIONTIME: 7.5847
IONMODE: Positive
MASSBANKACCESSION: 
Links: 
Comment: C18H11ClN2O C18H10N2O C18H11N2O C18H9ClN2 C18H8N2 C17H10N2 C18H9N2 C17H9N2 
Num Peaks: 8
307.063267 1.0
271.086589 0.588462174
272.094414 0.487820685
289.052702 0.130775675
253.076025 0.057953615
243.091675 0.054456823
254.08385 0.041600142
242.08385 0.030414262999999997

NAME: Oxadiazon
PRECURSORMZ: 345.076724
PRECURSORTYPE: [M+H]+
INSTRUMENTTYPE: 
INSTRUMENT: 
Authors: 
License: 
SMILES: 
INCHI: 
INCHIKEY: 
COLLISIONENERGY: 
FORMULA: C15H18Cl2N2O3
RETENTIONTIME: 9.606599999999998
IONMODE: Positive
MASSBANKACCESSION: 
Links: 
Comment: C7H3ClNO3 C6H2Cl2O2 C7H3Cl2NO3 C5H2Cl2O C7H2ClNO3 C12H12Cl2N2O3 C7HCl2NO2 C6HCl2NO C6HClO2 C5H3ClNO 
Num Peaks: 10
184.987422 1.0
176.950461 0.9720076320000001
219.956275 0.809424102
148.955546 0.20428367
183.979597 0.157924801
303.029774 0.145635411
201.94571 0.08119943
173.950795 0.07605902099999999
140.973783 0.06473108400000001
128.997593 0.060732983

NAME: Azinphos-Ethyl
PRECURSORMZ: 346.044346
PRECURSORTYPE: [M+H]+
INSTRUMENTTYPE: 
INSTRUMENT: 
Authors: 
License: 
SMILES: 
INCHI: 
INCHIKEY: 
COLLISIONENERGY: 
FORMULA: C12H16N3O3PS2
RETENTIONTIME: 8.021666666666667
IONMODE: Positive
MASSBANKACCESSION: 
Links: 
Comment: C8H5NO C7H4OS C7H4O CH3O2PS2 C7H5N C7H5O3PS2 C2H5O2PS C7H3N C7H3O2PS2 C6H4S C7H3N3 C6H3OPS 
Num Peaks: 12
132.04439 1.0
137.005562 0.82165724
105.033491 0.353954792
142.938484 0.328625232
104.04947600000001 0.303013176
232.949049 0.144067794
124.982063 0.119774014
102.033826 0.048022598
214.938484 0.042372882
109.010648 0.039548021
130.039974 0.038041431
154.971499 0.033898305

NAME: Tolylfluanid
PRECURSORMZ: 346.98523
PRECURSORTYPE: [M+H]+
INSTRUMENTTYPE: 
INSTRUMENT: 
Authors: 
License: 
SMILES: 
INCHI: 
INCHIKEY: 
COLLISIONENERGY: 
FORMULA: C10H13Cl2FN2O2S2
RETENTIONTIME: 8.742799999999999
IONMODE: Positive
MASSBANKACCESSION: 
Links: 
Comment: C7H6NS C8H6Cl2FNS C7H5NS 
Num Peaks: 3
137.029372 1.0
237.96548 0.052766923
136.021547 0.038807068

NAME: Dursban
PRECURSORMZ: 349.93356
PRECURSORTYPE: [M+H]+
INSTRUMENTTYPE: 
INSTRUMENT: 
Authors: 
License: 
SMILES: 
INCHI: 
INCHIKEY: 
COLLISIONENERGY: 
FORMULA: C9H11Cl3NO3PS
RETENTIONTIME: 9.652583333333332
IONMODE: Positive
MASSBANKACCESSION: 
Links: 
Comment: C5H2Cl3NO C7HClOPS C5H2Cl3NS C5HCl2NO C5HCl3NO2PS C5H3Cl3NO3PS C4HCl2N C7OPS 
Num Peaks: 8
197.927473 1.0
199.924701 0.93121165
213.90463 0.17553681100000001
161.950795 0.05667178
275.860395 0.05659509099999999
293.87096 0.044708587
133.955881 0.043174847999999995
163.948024 0.037806749

NAME: Hexythiazox
PRECURSORMZ: 353.108503
PRECURSORTYPE: [M+H]+
INSTRUMENTTYPE: 
INSTRUMENT: 
Authors: 
License: 
SMILES: 
INCHI: 
INCHIKEY: 
COLLISIONENERGY: 
FORMULA: C17H21ClN2O2S
RETENTIONTIME: 9.66366666666667
IONMODE: Positive
MASSBANKACCESSION: 
Links: 
Comment: C9H10ClN C10H10ClNOS C9H7Cl C10H8ClNO C9H6 C10H6ClN C9H7 C9H10N C9H9N C10H8NO 
Num Peaks: 10
168.057453 1.0
228.024439 0.39706349399999996
151.030904 0.263918757
194.036718 0.23992689
115.054227 0.081916079
176.026153 0.076770246
116.062052 0.070894659
133.088601 0.065346099
132.080776 0.047166812999999995
159.067865 0.04015338

NAME: Flumioxazin
PRECURSORMZ: 355.108862
PRECURSORTYPE: [M+H]+
INSTRUMENTTYPE: 
INSTRUMENT: 
Authors: 
License: 
SMILES: 
INCHI: 
INCHIKEY: 
COLLISIONENERGY: 
FORMULA: C19H15FN2O4
RETENTIONTIME: 7.205266666666666
IONMODE: Positive
MASSBANKACCESSION: 
Links: 
Comment: C16H11FN2O3 C18H15FN2O3 C17H11FN2O4 C10H6FNO C15H9FN2O3 C15H11FN2O3 C17H13FN2O3 C11H6FNO2 C13H7FN2O3 C9H6FN C7H6O C16H10N2O3 C18H14N2O3 C15H11FN2O2 C14H9FN2O2 C17H14N2O2 C14H10FNO3 C9H5FO C16H13FN2O3 C15H10N2O2 C8H5F C17H10N2O4 C15H9FN2O C12H6FNO3 C15H12FNO2 C14H6N2O C14H10N2O C14H8FNO3 C16H9FN2O2 C16H12FNO3 C15H13FN2O C17H13FN2O C14H8N2O2 C16H15FN2O C14H10FNO2 C14H7FN2O C15H8FNO3 
Num Peaks: 37
299.082647 1.0
327.113947 0.581647515
327.077562 0.51301676
176.05061799999996 0.345739841
285.066997 0.304503113
287.082647 0.244920492
313.098297 0.200088337
204.045533 0.19390459399999999
259.051347 0.18021202100000003
148.055704 0.170273855
107.049141 0.12588338599999999
279.076419 0.121245585
307.107719 0.105123676
271.087732 0.104911663
257.072082 0.10225264699999999
279.112804 0.095596284
260.071748 0.08988516
149.039719 0.08436396
301.098297 0.079505302
251.081504 0.060733214
121.044805 0.059628975
307.071333 0.056874997999999996
253.07716800000003 0.056316253
232.040448 0.053003535
258.092483 0.053003535
219.055289 0.049690813
223.086589 0.049690813
258.056098 0.046071112000000004
281.072082 0.045161220999999994
286.087398 0.043065373
257.108468 0.040830389
281.108468 0.039916079
237.065854 0.039752651
271.124118 0.038374557999999996
244.076833 0.036439928999999996
239.061518 0.033127207
270.056098 0.033127207

NAME: Chlorfenvinphos
PRECURSORMZ: 358.976805
PRECURSORTYPE: [M+H]+
INSTRUMENTTYPE: 
INSTRUMENT: 
Authors: 
License: 
SMILES: 
INCHI: 
INCHIKEY: 
COLLISIONENERGY: 
FORMULA: C12H14Cl3O4P
RETENTIONTIME: 8.281883333333333
IONMODE: Positive
MASSBANKACCESSION: 
Links: 
Comment: C8H3Cl2 C8H3Cl3 C2H7O4P C4H11O4P C8H2Cl2 
Num Peaks: 5
169.968457 1.0
204.93731 0.5821296570000001
127.015472 0.220815137
155.046772 0.10250298699999999
168.960632 0.043587159

NAME: Triflumuron
PRECURSORMZ: 359.040481
PRECURSORTYPE: [M+H]+
INSTRUMENTTYPE: 
INSTRUMENT: 
Authors: 
License: 
SMILES: 
INCHI: 
INCHIKEY: 
COLLISIONENERGY: 
FORMULA: C15H10ClF3N2O3
RETENTIONTIME: 8.340483333333333
IONMODE: Positive
MASSBANKACCESSION: 
Links: 
Comment: C7H3ClO C7H6ClNO C6H5Cl C6H3Cl 
Num Peaks: 4
138.994519 1.0
156.021068 0.911374032
113.01525400000001 0.051732719
110.999604 0.040784426

NAME: Isoxaflutole
PRECURSORMZ: 360.05119
PRECURSORTYPE: [M+H]+
INSTRUMENTTYPE: 
INSTRUMENT: 
Authors: 
License: 
SMILES: 
INCHI: 
INCHIKEY: 
COLLISIONENERGY: 
FORMULA: C15H12F3NO4S
RETENTIONTIME: 7.380083333333333
IONMODE: Positive
MASSBANKACCESSION: 
Links: 
Comment: C9H11NO2 C9H9NO2 C8H9NO 
Num Peaks: 3
166.086255 1.0
164.070605 0.618421078
136.07569 0.315789461

NAME: Clethodim
PRECURSORMZ: 360.139469
PRECURSORTYPE: [M+H]+
INSTRUMENTTYPE: 
INSTRUMENT: 
Authors: 
License: 
SMILES: 
INCHI: 
INCHIKEY: 
COLLISIONENERGY: 
FORMULA: C17H26ClNO3S
RETENTIONTIME: 7.3182
IONMODE: Positive
MASSBANKACCESSION: 
Links: 
Comment: C9H9NO2 C9H11NO2 C8H9NO C8H7NO C9H8O2 C12H15NO2 C9H6O2 C12H17NO2S C12H17NO2 C7H5NO2 C10H11NO2 C10H11NO C11H15NO C7H7NO C10H10O C8H9NO2 C11H17NOS C9H7NO C9H9NO C8H6NO2 C7H8O C9H9N C12H12O2 C11H13NO2 C7H7N C7H6O C9H8 C10H8 C9H8O C9H10O C7H7NO2 C10H12NO 
Num Peaks: 32
164.070605 1.0
166.086255 0.949664414
136.07569 0.496644288
134.06004 0.310961962
149.059706 0.183445185
206.117555 0.159395978
147.044056 0.15100671400000001
240.105276 0.116789714
208.133205 0.109060399
136.039305 0.10067114199999999
178.086255 0.10067114199999999
162.09134 0.09228187800000001
178.12264099999996 0.07550335700000001
122.06004 0.058724832000000005
147.080441 0.058724832000000005
152.070605 0.058724832000000005
212.110362 0.058724832000000005
146.06003999999996 0.050335570999999996
148.07569 0.050335570999999996
149.04713 0.050335570999999996
109.06479099999999 0.04194631099999999
132.080776 0.04194631099999999
189.091006 0.04194631099999999
192.101905 0.04194631099999999
106.065126 0.033557046
107.049141 0.033557046
117.069877 0.033557046
129.069877 0.033557046
133.064791 0.033557046
135.080441 0.033557046
138.054955 0.033557046
163.099165 0.033557046

NAME: Coumaphos
PRECURSORMZ: 363.021735
PRECURSORTYPE: [M+H]+
INSTRUMENTTYPE: 
INSTRUMENT: 
Authors: 
License: 
SMILES: 
INCHI: 
INCHIKEY: 
COLLISIONENERGY: 
FORMULA: C14H16ClO5PS
RETENTIONTIME: 8.62265
IONMODE: Positive
MASSBANKACCESSION: 
Links: 
Comment: C10H7ClO2S C10H6ClO4PS C10H7ClO3 C10H8ClO5PS C12H12ClO5PS 
Num Peaks: 5
226.992805 1.0
288.94857 0.22705423800000002
211.015648 0.18455007699999998
306.959135 0.15748398
334.990435 0.08856485800000001

NAME: Flufenacet
PRECURSORMZ: 364.073737
PRECURSORTYPE: [M+H]+
INSTRUMENTTYPE: 
INSTRUMENT: 
Authors: 
License: 
SMILES: 
INCHI: 
INCHIKEY: 
COLLISIONENERGY: 
FORMULA: C14H13F4N3O2S
RETENTIONTIME: 8.00605
IONMODE: Positive
MASSBANKACCESSION: 
Links: 
Comment: C8H6FNO C7H6FN C7H5F C11H12FNO 
Num Peaks: 4
152.05061799999996 1.0
124.055704 0.643052459
109.044805 0.124766104
194.097569 0.071036801

NAME: Benzoximate
PRECURSORMZ: 364.094627
PRECURSORTYPE: [M+H]+
INSTRUMENTTYPE: 
INSTRUMENT: 
Authors: 
License: 
SMILES: 
INCHI: 
INCHIKEY: 
COLLISIONENERGY: 
FORMULA: C18H18ClNO5
RETENTIONTIME: 8.960616666666665
IONMODE: Positive
MASSBANKACCESSION: 
Links: 
Comment: C9H7ClO3 C8H4ClO3 C7H4O C6HClO2 C7H4ClO2 
Num Peaks: 5
199.015648 1.0
183.992173 0.5912378429999999
105.033491 0.50998193
140.973783 0.102900669
155.997259 0.034128029

NAME: Pyridaben
PRECURSORMZ: 365.144889
PRECURSORTYPE: [M+H]+
INSTRUMENTTYPE: 
INSTRUMENT: 
Authors: 
License: 
SMILES: 
INCHI: 
INCHIKEY: 
COLLISIONENERGY: 
FORMULA: C19H25ClN2OS
RETENTIONTIME: 10.215233333333334
IONMODE: Positive
MASSBANKACCESSION: 
Links: 
Comment: C11H14 C15H17ClN2OS C10H11 C9H10 C8H8 
Num Peaks: 5
147.116827 1.0
309.082288 0.190150276
132.093352 0.08667801300000001
119.08552700000001 0.047987863
105.069877 0.035611946

NAME: Picoxystrobin
PRECURSORMZ: 368.110419
PRECURSORTYPE: [M+H]+
INSTRUMENTTYPE: 
INSTRUMENT: 
Authors: 
License: 
SMILES: 
INCHI: 
INCHIKEY: 
COLLISIONENERGY: 
FORMULA: C18H16F3NO4
RETENTIONTIME: 8.376433333333333
IONMODE: Positive
MASSBANKACCESSION: 
Links: 
Comment: C10H8O C9H8 C9H6 C12H12O3 
Num Peaks: 4
145.064791 1.0
117.069877 0.076724775
115.054227 0.061216664000000004
205.085921 0.030720632999999997

NAME: Methoxyfenozide
PRECURSORMZ: 369.217269
PRECURSORTYPE: [M+H]+
INSTRUMENTTYPE: 
INSTRUMENT: 
Authors: 
License: 
SMILES: 
INCHI: 
INCHIKEY: 
COLLISIONENERGY: 
FORMULA: C22H28N2O3
RETENTIONTIME: 7.757716666666667
IONMODE: Positive
MASSBANKACCESSION: 
Links: 
Comment: C9H8O2 C9H8O C8H8 
Num Peaks: 3
149.059706 1.0
133.064791 0.238553822
105.069877 0.057808883

NAME: Amidosulfuron
PRECURSORMZ: 370.048566
PRECURSORTYPE: [M+H]+
INSTRUMENTTYPE: 
INSTRUMENT: 
Authors: 
License: 
SMILES: 
INCHI: 
INCHIKEY: 
COLLISIONENERGY: 
FORMULA: C9H15N5O7S2
RETENTIONTIME: 6.160349999999999
IONMODE: Positive
MASSBANKACCESSION: 
Links: 
Comment: CH8N5O6S C6H7N3O4S C5H4N3O2 H5N5O4 CH8N5O4 C6H7N3O2 C7H8N4O5S H6N5O3 C7H7N3O3 C5H5N3O C5H6N2O2 H7N4O4 
Num Peaks: 12
219.026805 1.0
218.023003 0.454123974
139.037628 0.25566861
140.04143 0.249899939
155.064905 0.179355785
154.061103 0.148365051
261.028817 0.119814545
125.054341 0.062225475999999995
182.056018 0.047584187
124.050538 0.044167887
127.050204 0.040263545
128.054006 0.040263545

NAME: Spiromesifen
PRECURSORMZ: 371.221686
PRECURSORTYPE: [M+H]+
INSTRUMENTTYPE: 
INSTRUMENT: 
Authors: 
License: 
SMILES: 
INCHI: 
INCHIKEY: 
COLLISIONENERGY: 
FORMULA: C23H30O4
RETENTIONTIME: 10.212466666666668
IONMODE: Positive
MASSBANKACCESSION: 
Links: 
Comment: C17H20O3 C17H18O2 C12H10O2 C16H18O C11H12O C15H18 C10H10 C12H12 C11H10O C16H16 C10H10O C10H12 C6H6O2 C9H10 
Num Peaks: 14
273.148521 1.0
255.137956 0.673327565
187.075356 0.386620343
227.143042 0.312771499
161.096091 0.22154648600000001
199.148127 0.22154648600000001
131.085527 0.169417903
157.101177 0.15638575
159.080441 0.15638575
209.132477 0.143353611
147.080441 0.104257166
133.101177 0.078192875
111.044056 0.052128583
119.08552700000001 0.039096437000000005

NAME: Profenofos
PRECURSORMZ: 372.942418
PRECURSORTYPE: [M+H]+
INSTRUMENTTYPE: 
INSTRUMENT: 
Authors: 
License: 
SMILES: 
INCHI: 
INCHIKEY: 
COLLISIONENERGY: 
FORMULA: C11H15BrClO3PS
RETENTIONTIME: 9.102133333333335
IONMODE: Positive
MASSBANKACCESSION: 
Links: 
Comment: C9H3BrClOPS C9HBrClPS C6H4ClS C5BrClO3 C6H5BrClOPS C6H4ClO C5H6BrPS C5H2BrClO3 C6H4O3PS C5H2ClO3 C5H6PS C6H3ClO2PS C6H3BrO2 
Num Peaks: 13
304.858689 1.0
286.848124 0.230369419
143.9795 0.19668002399999998
222.87921 0.171083719
270.874339 0.14325027199999998
128.002344 0.128449336
208.918396 0.110331729
224.89486 0.10813646
187.969153 0.09676063800000001
145.97652299999996 0.057312075
130.000059 0.045317221
205.935266 0.035067152000000004
186.938918 0.031318236

NAME: Proquinazid
PRECURSORMZ: 373.040752
PRECURSORTYPE: [M+H]+
INSTRUMENTTYPE: 
INSTRUMENT: 
Authors: 
License: 
SMILES: 
INCHI: 
INCHIKEY: 
COLLISIONENERGY: 
FORMULA: C14H17IN2O2
RETENTIONTIME: 10.1399
IONMODE: Positive
MASSBANKACCESSION: 
Links: 
Comment: C8H5IN2O2 C8H2INO2 C11H11IN2O2 C8H5N2O2 C8H3IN2O 
Num Peaks: 5
288.946852 1.0
271.920303 0.655314445
330.993802 0.31874966600000004
162.042379 0.070059642
270.936287 0.061277202999999995

NAME: Spirotetramat
PRECURSORMZ: 374.196199
PRECURSORTYPE: [M+H]+
INSTRUMENTTYPE: 
INSTRUMENT: 
Authors: 
License: 
SMILES: 
INCHI: 
INCHIKEY: 
COLLISIONENERGY: 
FORMULA: C21H27NO5
RETENTIONTIME: 7.297883333333333
IONMODE: Positive
MASSBANKACCESSION: 
Links: 
Comment: C13H13NO2 C17H19NO2 C15H17NO2 C19H23NO2 C11H12 C12H10 C17H16O2 C15H16 C12H12O 
Num Peaks: 9
216.101905 1.0
270.148855 0.515960813
244.133205 0.288511008
298.180155 0.23381137800000001
145.101177 0.091563024
155.085527 0.059614718
253.122306 0.056423999
197.132477 0.042376727
173.096091 0.036518062999999996

NAME: Fluquinconazole
PRECURSORMZ: 376.01627
PRECURSORTYPE: [M+H]+
INSTRUMENTTYPE: 
INSTRUMENT: 
Authors: 
License: 
SMILES: 
INCHI: 
INCHIKEY: 
COLLISIONENERGY: 
FORMULA: C16H8Cl2FN5O
RETENTIONTIME: 7.6215
IONMODE: Positive
MASSBANKACCESSION: 
Links: 
Comment: C14H5Cl2FN2O C15H7Cl2FN4O C14H5ClFN2O C8H3FN2O C14H6ClFN3O C13H5ClFN2 C13H5Cl2FN2 C6H2FN 
Num Peaks: 8
306.983573 1.0
349.005371 0.6168431639999999
272.01472 0.286483526
163.030217 0.119999349
287.025619 0.09092669199999999
244.019806 0.072854504
278.988658 0.07084298900000001
108.024404 0.032907102

NAME: Picolinafen
PRECURSORMZ: 377.090767
PRECURSORTYPE: [M+H]+
INSTRUMENTTYPE: 
INSTRUMENT: 
Authors: 
License: 
SMILES: 
INCHI: 
INCHIKEY: 
COLLISIONENERGY: 
FORMULA: C19H12F4N2O2
RETENTIONTIME: 9.211549999999999
IONMODE: Positive
MASSBANKACCESSION: 
Links: 
Comment: C15H5F2N C19H10F4N2O C13H6F3NO2 C7H3F3 
Num Peaks: 4
238.046282 1.0
359.080202 0.34927663200000003
266.04234 0.03777843
145.025961 0.036349185

NAME: Teflubenzuron
PRECURSORMZ: 380.981522
PRECURSORTYPE: [M+H]+
INSTRUMENTTYPE: 
INSTRUMENT: 
Authors: 
License: 
SMILES: 
INCHI: 
INCHIKEY: 
COLLISIONENERGY: 
FORMULA: C14H6Cl2F4N2O2
RETENTIONTIME: 8.856066666666667
IONMODE: Positive
MASSBANKACCESSION: 
Links: 
Comment: C7H2F2O C7H5F2NO C7H3F2N 
Num Peaks: 3
141.014648 1.0
158.041197 0.568651438
140.030632 0.030093335

NAME: Metsulfuron-methyl
PRECURSORMZ: 382.081581
PRECURSORTYPE: [M+H]+
INSTRUMENTTYPE: 
INSTRUMENT: 
Authors: 
License: 
SMILES: 
INCHI: 
INCHIKEY: 
COLLISIONENERGY: 
FORMULA: C14H15N5O6S
RETENTIONTIME: 5.882416666666667
IONMODE: Positive
MASSBANKACCESSION: 
Links: 
Comment: C5H8N4O C8H6O4S C8H6O2 
Num Peaks: 3
141.077087 1.0
199.005956 0.8691148759999999
135.044056 0.617388546

NAME: Fluopicolide
PRECURSORMZ: 382.972707
PRECURSORTYPE: [M+H]+
INSTRUMENTTYPE: 
INSTRUMENT: 
Authors: 
License: 
SMILES: 
INCHI: 
INCHIKEY: 
COLLISIONENERGY: 
FORMULA: C14H8Cl3F3N2O
RETENTIONTIME: 7.696916666666667
IONMODE: Positive
MASSBANKACCESSION: 
Links: 
Comment: C4H2Cl2F2O C7H2Cl2O C3H2Cl2F2 C7H3ClF3N C6H2Cl2 
Num Peaks: 5
174.95235299999996 1.0
172.955546 0.495787084
146.957438 0.08078762099999999
193.997888 0.05007698
144.960632 0.040561657

NAME: Furathiocarb
PRECURSORMZ: 383.163519
PRECURSORTYPE: [M+H]+
INSTRUMENTTYPE: 
INSTRUMENT: 
Authors: 
License: 
SMILES: 
INCHI: 
INCHIKEY: 
COLLISIONENERGY: 
FORMULA: C18H26N2O5S
RETENTIONTIME: 9.379016666666667
IONMODE: Positive
MASSBANKACCESSION: 
Links: 
Comment: C10H10O2S C9H10OS C10H11O2 C10H9O2 C10H8OS C9H8O2 C9H8S C6H4OS C12H13NO3S C10H8O2 C9H10O C9H8O C10H7O C8H8OS 
Num Peaks: 14
195.047427 1.0
167.052512 0.471390903
164.083181 0.29285681199999997
162.067531 0.280062348
177.036862 0.152137339
149.059706 0.119158246
149.041948 0.10977918699999999
125.005562 0.089536771
252.068891 0.07093617299999999
161.059706 0.061046373
135.080441 0.05598554
133.064791 0.041135132000000005
144.056966 0.039773706
153.036862 0.033100206

NAME: Benzoximate
PRECURSORMZ: 386.076571
PRECURSORTYPE: [M+Na]+
INSTRUMENTTYPE: 
INSTRUMENT: 
Authors: 
License: 
SMILES: 
INCHI: 
INCHIKEY: 
COLLISIONENERGY: 
FORMULA: C18H18ClNO5
RETENTIONTIME: 8.976149999999999
IONMODE: Positive
MASSBANKACCESSION: 
Links: 
Comment: C7H9ClNO2 C12H2NO C12HO C12H C11HN C12H5N C7H10ClNO2 C6H10ClNO2 C6H7O2 C5H8ClN C4H7ClNO C13H5NO C9H14ClNO3 C12H2N C11H C6H7NO C6H8NO C6H7NO3 C6H7ClNO C6H8ClNO C7H10NO3 C5H7ClNO C12O C4H7NO C6H9ClO C11H2 C7H9NO2 
Num Peaks: 27
197.021402 1.0
199.002859 0.7415519359999999
183.99196 0.607287467
167.997046 0.303643733
170.00012 0.263157904
186.03142 0.141700402
198.029227 0.141700402
186.029227 0.12145748699999999
134.033825 0.101214573
140.023748 0.101214573
143.01083700000004 0.101214573
214.026334 0.101214573
242.055442 0.101214573
183.007945 0.09039136800000001
155.997046 0.080971658
132.041985 0.060728744
133.04981 0.060728744
164.031814 0.060728744
167.010837 0.060728744
168.018662 0.060728744
179.05528899999996 0.060728744
155.010837 0.047678813
182.984135 0.043981105
108.041985 0.040485829
155.023413 0.040485829
157.004871 0.040485829
162.052549 0.040485829

NAME: Sulfentrazone
PRECURSORMZ: 386.989149
PRECURSORTYPE: [M+H]+
INSTRUMENTTYPE: 
INSTRUMENT: 
Authors: 
License: 
SMILES: 
INCHI: 
INCHIKEY: 
COLLISIONENERGY: 
FORMULA: C11H10Cl2F2N4O3S
RETENTIONTIME: 6.2682166666666665
IONMODE: Positive
MASSBANKACCESSION: 
Links: 
Comment: C10H7ClF2N4O C10H6Cl2F2N4O C10H7Cl2F2N4O C5H5ClFN3O C5HCl2N C9H5Cl2F2N3O C4H5Cl2FN2O C7Cl2N2O C6HClN2 C10H5Cl2FN4O C10H5ClF2N4O C5H6Cl2FN3O C5H6Cl2FN3OS C6H2Cl2N2 C8H4ClF2N3O C11H9Cl2FN4O3S C7H4ClN3O C6HCl2N C10H6ClF2N4O C10H8Cl2F2N4OS 
Num Peaks: 20
273.034921 1.0
306.995949 0.768384457
308.003774 0.471048057
178.017794 0.43977996700000005
145.955881 0.36682108
279.98505 0.363925874
186.983573 0.314707577
198.946044 0.207585409
136.990102 0.202084541
286.989721 0.19339895199999999
271.019271 0.148812965
213.994472 0.143601626
245.966543 0.143312097
172.96678 0.110306889
232.008372 0.109148815
366.982921 0.086855821
182.011566 0.07382744599999999
157.955881 0.056456282999999996
272.027096 0.043427911
340.98367 0.043427911

NAME: Thifensulfurson methyl
PRECURSORMZ: 388.038002
PRECURSORTYPE: [M+H]+
INSTRUMENTTYPE: 
INSTRUMENT: 
Authors: 
License: 
SMILES: 
INCHI: 
INCHIKEY: 
COLLISIONENERGY: 
FORMULA: C12H13N5O6S2
RETENTIONTIME: 5.7287
IONMODE: Positive
MASSBANKACCESSION: 
Links: 
Comment: C6H4O4S2 C5HO2S C6H4O2S C5H2O3S2 
Num Peaks: 4
204.962377 1.0
125.97700200000001 0.095665485
141.000477 0.070479371
174.951812 0.067835525

NAME: Pyraclostrobin
PRECURSORMZ: 388.10586
PRECURSORTYPE: [M+H]+
INSTRUMENTTYPE: 
INSTRUMENT: 
Authors: 
License: 
SMILES: 
INCHI: 
INCHIKEY: 
COLLISIONENERGY: 
FORMULA: C19H18ClN3O4
RETENTIONTIME: 8.63965
IONMODE: Positive
MASSBANKACCESSION: 
Links: 
Comment: C9H8NO2 C8H6NO2 C8H6NO C9H9NO2 C9H7NO2 C8H5NO C10H11NO3 C7H6N C8H7NO C7H5NO C7H4NO C7H5N C9H5N C13H12N2O4 
Num Peaks: 14
163.06278 1.0
149.04713 0.383538127
133.052215 0.299577415
164.070605 0.269180924
162.054955 0.180515856
132.04439 0.142706439
194.08117 0.110559434
105.057301 0.08637650300000001
134.06004 0.071893997
120.04439 0.054221403
119.036565 0.046326868
104.04947600000001 0.042720798
128.04947600000003 0.037525833
261.086983 0.034876484

NAME: Dimethomorph
PRECURSORMZ: 388.131012
PRECURSORTYPE: [M+H]+
INSTRUMENTTYPE: 
INSTRUMENT: 
Authors: 
License: 
SMILES: 
INCHI: 
INCHIKEY: 
COLLISIONENERGY: 
FORMULA: C21H22ClNO4
RETENTIONTIME: 7.079416666666666
IONMODE: Positive
MASSBANKACCESSION: 
Links: 
Comment: C17H13ClO3 C9H8O3 C16H13ClO2 C7H3ClO C15H10ClO2 C15H10ClO C16H13O2 
Num Peaks: 7
301.062598 1.0
165.054621 0.583803117
273.067684 0.163256064
138.994519 0.124745704
258.044209 0.084643185
242.049294 0.072224341
238.098831 0.034251332

NAME: Picoxystrobin
PRECURSORMZ: 390.092363
PRECURSORTYPE: [M+Na]+
INSTRUMENTTYPE: 
INSTRUMENT: 
Authors: 
License: 
SMILES: 
INCHI: 
INCHIKEY: 
COLLISIONENERGY: 
FORMULA: C18H16F3NO4
RETENTIONTIME: 8.360933333333334
IONMODE: Positive
MASSBANKACCESSION: 
Links: 
Comment: C8H10O C4H9FO C5H12FO2 C7H10 C4H8FO2 C9H14O2 C7H14F2NO2 
Num Peaks: 7
145.062386 1.0
115.052964 0.068130203
146.071354 0.056775171
117.067471 0.034065101
130.040053 0.034065101
177.0886 0.034065101
205.088481 0.034065101

NAME: Methoxyfenozide
PRECURSORMZ: 391.199213
PRECURSORTYPE: [M+Na]+
INSTRUMENTTYPE: 
INSTRUMENT: 
Authors: 
License: 
SMILES: 
INCHI: 
INCHIKEY: 
COLLISIONENERGY: 
FORMULA: C22H28N2O3
RETENTIONTIME: 7.757716666666667
IONMODE: Positive
MASSBANKACCESSION: 
Links: 
Comment: C13H18N2O C11H20N2O C9H9NO C18H20N2O3 C16H20N2O2 
Num Peaks: 5
241.131134 1.0
219.146784 0.448105425
170.057635 0.321252048
335.136613 0.197693571
295.141699 0.12355848400000001

NAME: Diflufenican
PRECURSORMZ: 395.081345
PRECURSORTYPE: [M+H]+
INSTRUMENTTYPE: 
INSTRUMENT: 
Authors: 
License: 
SMILES: 
INCHI: 
INCHIKEY: 
COLLISIONENERGY: 
FORMULA: C19H11F5N2O2
RETENTIONTIME: 8.895133333333332
IONMODE: Positive
MASSBANKACCESSION: 
Links: 
Comment: C13H6F3NO2 C13H5F2NO2 C12H6F3NO C12H5F2NO 
Num Peaks: 4
266.04234 1.0
246.036111 0.141975448
238.047425 0.09486445800000001
218.041197 0.046823545999999994

NAME: Rotenone
PRECURSORMZ: 395.148915
PRECURSORTYPE: [M+H]+
INSTRUMENTTYPE: 
INSTRUMENT: 
Authors: 
License: 
SMILES: 
INCHI: 
INCHIKEY: 
COLLISIONENERGY: 
FORMULA: C23H22O6
RETENTIONTIME: 7.9982
IONMODE: Positive
MASSBANKACCESSION: 
Links: 
Comment: C14H12O2 C12H10O3 C11H10O3 C14H10O C10H10O3 C13H9O2 C8H10O2 C9H10O3 C15H12O3 C9H10O2 C10H8O3 C12H12O2 C10H10O C11H12O3 C9H6O2 C22H22O5 C10H8O2 C9H4O3 C10H6O2 C12H9O C8H8O2 C12H8O C8H6O2 C10H12O2 C23H20O5 C7H7O2 C9H8O C12H8O2 C10H7O3 C9H7O2 C10H9O3 
Num Peaks: 31
213.091006 1.0
203.070271 0.500755906
191.070271 0.419080734
195.080441 0.31788957100000004
179.070271 0.26104310199999997
198.067531 0.22466372
139.07535600000003 0.213165417
167.070271 0.189759746
241.085921 0.17218752199999998
151.075356 0.156107575
177.054621 0.136019036
189.091006 0.135199085
147.080441 0.09593305
193.085921 0.08873578900000001
147.044056 0.080627486
367.154 0.07338468
161.059706 0.06996826099999999
161.02332 0.068829454
159.044056 0.053706105999999997
170.072616 0.051656257000000004
137.059706 0.051428493
169.064791 0.050244138
135.044056 0.048187908
165.091006 0.042666521
377.13835 0.037398402000000004
124.051881 0.035120789
133.064791 0.03498413
185.059706 0.033572011
176.046796 0.033070937
148.051881 0.032615412
178.062446 0.030018935

NAME: Tribenuron methyl
PRECURSORMZ: 396.097231
PRECURSORTYPE: [M+H]+
INSTRUMENTTYPE: 
INSTRUMENT: 
Authors: 
License: 
SMILES: 
INCHI: 
INCHIKEY: 
COLLISIONENERGY: 
FORMULA: C15H17N5O6S
RETENTIONTIME: 6.796033333333333
IONMODE: Positive
MASSBANKACCESSION: 
Links: 
Comment: C7H8N4O2 C6H4N3O C4H7N3O C6H7N3O 
Num Peaks: 4
181.072002 1.0
135.042713 0.203976303
114.066188 0.050906107
138.066188 0.046331592000000005

NAME: Alanycarb
PRECURSORMZ: 400.135925
PRECURSORTYPE: [M+H]+
INSTRUMENTTYPE: 
INSTRUMENT: 
Authors: 
License: 
SMILES: 
INCHI: 
INCHIKEY: 
COLLISIONENERGY: 
FORMULA: C17H25N3O4S2
RETENTIONTIME: 8.051466666666666
IONMODE: Positive
MASSBANKACCESSION: 
Links: 
Comment: C8H7NS C7H7NS C7H6S C12H15NO2S C10H9NOS C5H8O2 C9H9NS 
Num Peaks: 7
150.037197 1.0
138.037197 0.905153632
123.026298 0.352638721
238.089626 0.194879293
192.047761 0.147255719
101.059706 0.144995898
164.052847 0.040600363

NAME: Triasulfuron
PRECURSORMZ: 402.063344
PRECURSORTYPE: [M+H]+
INSTRUMENTTYPE: 
INSTRUMENT: 
Authors: 
License: 
SMILES: 
INCHI: 
INCHIKEY: 
COLLISIONENERGY: 
FORMULA: C14H16ClN5O5S
RETENTIONTIME: 6.051983333333334
IONMODE: Positive
MASSBANKACCESSION: 
Links: 
Comment: C6H6N4O2 C7H4OS C6H4O2S C7H4O2 C8H7ClO3S C5H4OS C8H4O2S C8H6O3S C5H6N4O3S 
Num Peaks: 9
167.056352 1.0
137.005562 0.316123247
141.000477 0.188606456
121.028406 0.157805309
218.987719 0.062992126
113.005562 0.047402630999999994
165.00047699999996 0.045605876
183.011042 0.038154627999999996
203.023338 0.030491995

NAME: Azoxystrobin
PRECURSORMZ: 404.124097
PRECURSORTYPE: [M+H]+
INSTRUMENTTYPE: 
INSTRUMENT: 
Authors: 
License: 
SMILES: 
INCHI: 
INCHIKEY: 
COLLISIONENERGY: 
FORMULA: C22H17N3O5
RETENTIONTIME: 7.429066666666667
IONMODE: Positive
MASSBANKACCESSION: 
Links: 
Comment: C21H13N3O4 C19H10N3O3 C20H13N3O3 C19H9N3O3 C18H10N3O2 C19H13N3O2 C11H6N2O C11H6NO3 C10H5NO2 C12H7N3O C12H9NO3 C10H5NO C17H10N3O C8H7NO C18H9N3O2 C18H10N2O2 C17H9N3O 
Num Peaks: 17
372.097882 1.0
329.079493 0.919591844
344.102968 0.822850823
328.071668 0.128075868
301.084578 0.125589833
316.108053 0.09619049699999999
183.055289 0.079149611
201.042045 0.072716676
172.039305 0.07195892200000001
210.066188 0.07063354599999999
216.06552 0.063432448
156.04439 0.061090488
273.089663 0.059113610999999996
134.06004 0.047290266
300.076753 0.044209108
287.081504 0.040932275
272.081838 0.039344944

NAME: Difenoconazole
PRECURSORMZ: 406.071973
PRECURSORTYPE: [M+H]+
INSTRUMENTTYPE: 
INSTRUMENT: 
Authors: 
License: 
SMILES: 
INCHI: 
INCHIKEY: 
COLLISIONENERGY: 
FORMULA: C19H17Cl2N3O3
RETENTIONTIME: 8.462583333333333
IONMODE: Positive
MASSBANKACCESSION: 
Links: 
Comment: C13H8Cl2O C12H8Cl C17H14Cl2O3 C12H8Cl2 
Num Peaks: 4
251.002497 1.0
188.038729 0.066846676
337.039276 0.050070163
223.007582 0.036793165

NAME: Flazasulfuron
PRECURSORMZ: 408.058401
PRECURSORTYPE: [M+H]+
INSTRUMENTTYPE: 
INSTRUMENT: 
Authors: 
License: 
SMILES: 
INCHI: 
INCHIKEY: 
COLLISIONENERGY: 
FORMULA: C13H12F3N5O5S
RETENTIONTIME: 6.796033333333333
IONMODE: Positive
MASSBANKACCESSION: 
Links: 
Comment: C6H6N2O2 C6H2F3N C6H5F3N2O2S C6H9N3O2 C12H11F3N4O2 C12H10F2N4O2 C6H4F2N2 C4H5NO2 C10H7F2N4O 
Num Peaks: 9
139.050204 1.0
146.02121 0.500779629
227.00966 0.43723636899999996
156.076753 0.309989661
301.090687 0.276320368
281.084458 0.130265325
143.041531 0.109538965
100.03930500000001 0.034830297999999996
238.066069 0.031347271

NAME: Sulfentrazone
PRECURSORMZ: 408.971094
PRECURSORTYPE: [M+Na]+
INSTRUMENTTYPE: 
INSTRUMENT: 
Authors: 
License: 
SMILES: 
INCHI: 
INCHIKEY: 
COLLISIONENERGY: 
FORMULA: C11H10Cl2F2N4O3S
RETENTIONTIME: 6.2527833333333325
IONMODE: Positive
MASSBANKACCESSION: 
Links: 
Comment: C11H10N2O3S C11H8N2O3S C9H6ClF2N3S C11H8ClF2N3S 
Num Peaks: 4
273.030434 1.0
271.014784 0.666666687
283.983123 0.666666687
309.998773 0.666666687

NAME: Metrafenone
PRECURSORMZ: 409.064512
PRECURSORTYPE: [M+H]+
INSTRUMENTTYPE: 
INSTRUMENT: 
Authors: 
License: 
SMILES: 
INCHI: 
INCHIKEY: 
COLLISIONENERGY: 
FORMULA: C19H21BrO5
RETENTIONTIME: 9.042166666666667
IONMODE: Positive
MASSBANKACCESSION: 
Links: 
Comment: C11H12O4 C9H7BrO2 C9H9O3 C7H5Br C10H9O4 C9H8O3 C7H4BrO C8H4BrO2 C9H7O2 C10H7O3 
Num Peaks: 10
209.080835 1.0
226.970218 0.998308897
166.062446 0.203394845
168.964739 0.129591554
194.05736 0.10236515800000001
165.054621 0.08670335300000001
183.951828 0.061221360999999995
211.946743 0.050280824
148.051881 0.046250100999999995
176.046796 0.031148471

NAME: Trifloxystrobin
PRECURSORMZ: 409.136968
PRECURSORTYPE: [M+H]+
INSTRUMENTTYPE: 
INSTRUMENT: 
Authors: 
License: 
SMILES: 
INCHI: 
INCHIKEY: 
COLLISIONENERGY: 
FORMULA: C20H19F3N2O4
RETENTIONTIME: 9.027283333333333
IONMODE: Positive
MASSBANKACCESSION: 
Links: 
Comment: C9H6F3N C7H3F3 C9H8N C8H5N C11H11NO3 C9H9N C9H7NO C9H7N 
Num Peaks: 8
186.05251 1.0
145.025961 0.382493168
131.072951 0.17849321699999998
116.04947600000001 0.136210054
206.08117 0.099982604
132.080776 0.090335228
146.06003999999996 0.063218907
130.065126 0.035362829

NAME: Spirodiclofen
PRECURSORMZ: 411.112441
PRECURSORTYPE: [M+H]+
INSTRUMENTTYPE: 
INSTRUMENT: 
Authors: 
License: 
SMILES: 
INCHI: 
INCHIKEY: 
COLLISIONENERGY: 
FORMULA: C21H24Cl2O4
RETENTIONTIME: 10.300366666666667
IONMODE: Positive
MASSBANKACCESSION: 
Links: 
Comment: C15H14Cl2O3 C9H2Cl2O2 C15H12Cl2O2 C9H4Cl2O3 C14H12Cl2O C18H12Cl2O C18H10Cl2 C8H2Cl2O C12H8Cl2O C9H4Cl2O2 C13H8Cl2O2 C7H2Cl2 C18H9Cl 
Num Peaks: 13
313.039276 1.0
212.950461 0.619718313
295.028711 0.6158770920000001
230.961026 0.49935978700000005
267.033797 0.26888603
315.033797 0.230473757
297.023232 0.153649166
184.955546 0.134443015
239.002497 0.134443015
214.966111 0.096030727
266.997411 0.089129321
156.960632 0.057618439
261.046554 0.038412292

NAME: Benfuracarb
PRECURSORMZ: 411.19482
PRECURSORTYPE: [M+H]+
INSTRUMENTTYPE: 
INSTRUMENT: 
Authors: 
License: 
SMILES: 
INCHI: 
INCHIKEY: 
COLLISIONENERGY: 
FORMULA: C20H30N2O5S
RETENTIONTIME: 9.366466666666668
IONMODE: Positive
MASSBANKACCESSION: 
Links: 
Comment: C10H9O2 C8H15NO2 C5H8O2 C10H8O2 C9H7 C6H9NO C10H6O C9H6O2 C9H8O 
Num Peaks: 9
162.067531 1.0
158.117555 0.37709102
101.059706 0.10713353800000001
161.059706 0.079671107
116.062052 0.072299406
112.07569 0.063793592
143.049141 0.051034875
147.044056 0.04252906099999999
133.064791 0.038276155

NAME: Carfentrazone-ethyl
PRECURSORMZ: 412.043708
PRECURSORTYPE: [M+H]+
INSTRUMENTTYPE: 
INSTRUMENT: 
Authors: 
License: 
SMILES: 
INCHI: 
INCHIKEY: 
COLLISIONENERGY: 
FORMULA: C15H14Cl2F3N3O3
RETENTIONTIME: 8.278466666666667
IONMODE: Positive
MASSBANKACCESSION: 
Links: 
Comment: C13H7Cl2F2N3O2 C13H8Cl2F3N3O2 C10H4Cl2F2N2O C12H7ClF3N3O C10H3ClF2N2O C7H3Cl2F C12H8Cl2F3N3O C13H10Cl2F3N3O3 C8H9Cl2F2N3O2 C7H7Cl2F2N3 C9H9Cl2F2N3O3 C8H3Cl2FO 
Num Peaks: 12
345.995615 1.0
366.001843 0.35510513200000005
276.974151 0.351304799
302.030251 0.244793519
240.997473 0.151811495
176.96686 0.092728652
338.006928 0.074841648
384.012408 0.073118821
288.011265 0.071041301
242.005785 0.055333164000000004
316.006179 0.048036482
204.961775 0.045958955

NAME: Mandipropamid
PRECURSORMZ: 412.131012
PRECURSORTYPE: [M+H]+
INSTRUMENTTYPE: 
INSTRUMENT: 
Authors: 
License: 
SMILES: 
INCHI: 
INCHIKEY: 
COLLISIONENERGY: 
FORMULA: C23H22ClNO4
RETENTIONTIME: 7.507416666666667
IONMODE: Positive
MASSBANKACCESSION: 
Links: 
Comment: C7H5Cl C19H18ClNO2 C12H13NO2 C9H9NO2 C13H13NO2 C9H10NO2 C12H12O2 C19H15ClO2 C16H12ClO2 C9H7O2 C18H15ClO2 C16H15ClNO2 C16H11ClO2 C18H15ClO C7H6ClN C15H11ClO C10H8 C20H18ClNO3 C11H12O C10H8O C10H7 C10H9NO2 C15H12O2 
Num Peaks: 23
125.01525400000001 1.0
328.109883 0.9112885000000001
204.101905 0.28295126600000003
164.070605 0.152893186
216.101905 0.112252541
165.07843 0.11103695599999999
189.091006 0.102328658
311.083334 0.097930163
272.059859 0.080590636
148.051881 0.07857132
299.083334 0.07390201099999999
289.086408 0.068958245
271.052034 0.067950226
283.088419 0.058162302
140.026153 0.04929224
243.057119 0.044373196
129.069877 0.041149572
356.104798 0.04111322
161.096091 0.040677003999999996
145.064791 0.038168769
128.062052 0.032679737
176.070605 0.032534335
225.091006 0.030789476

NAME: Fenpyroximate
PRECURSORMZ: 422.207433
PRECURSORTYPE: [M+H]+
INSTRUMENTTYPE: 
INSTRUMENT: 
Authors: 
License: 
SMILES: 
INCHI: 
INCHIKEY: 
COLLISIONENERGY: 
FORMULA: C24H27N3O4
RETENTIONTIME: 9.75901666666667
IONMODE: Positive
MASSBANKACCESSION: 
Links: 
Comment: C20H19N3O4 C12H11N3O C6H7N3O C12H12N3O C8H6O2 C12H10N2O C10H8NO C9H5NO 
Num Peaks: 8
366.144833 1.0
214.097488 0.227884874
138.066188 0.21674773100000003
215.105313 0.20468291600000002
135.044056 0.117935441
199.086589 0.042218629
159.067865 0.041307487000000004
144.04439 0.030388272999999997

NAME: Rimsulfuron
PRECURSORMZ: 432.064216
PRECURSORTYPE: [M+H]+
INSTRUMENTTYPE: 
INSTRUMENT: 
Authors: 
License: 
SMILES: 
INCHI: 
INCHIKEY: 
COLLISIONENERGY: 
FORMULA: C14H17N5O7S2
RETENTIONTIME: 6.098366666666666
IONMODE: Positive
MASSBANKACCESSION: 
Links: 
Comment: C7H7N3O3 C13H16N4O4S C6H6N2O2 C7H7N C9HN2O6 C6H9N3O2 C11H10N4O2 C9H4N3O6 
Num Peaks: 8
182.056018 1.0
325.096502 0.23030594
139.050204 0.109335825
106.065126 0.079762131
233.990737 0.0581875
156.076753 0.04374346900000001
231.087652 0.039263993999999997
251.017286 0.034144592

NAME: Benfuracarb
PRECURSORMZ: 433.176764
PRECURSORTYPE: [M+Na]+
INSTRUMENTTYPE: 
INSTRUMENT: 
Authors: 
License: 
SMILES: 
INCHI: 
INCHIKEY: 
COLLISIONENERGY: 
FORMULA: C20H30N2O5S
RETENTIONTIME: 9.3509
IONMODE: Positive
MASSBANKACCESSION: 
Links: 
Comment: C12H15NO3S C11H14NOS C12H13NO3 C11H14NO 
Num Peaks: 4
276.066485 1.0
231.068831 0.555555582
242.078764 0.555555582
199.09676 0.277777791

NAME: Carfentrazone-ethyl
PRECURSORMZ: 434.025652
PRECURSORTYPE: [M+Na]+
INSTRUMENTTYPE: 
INSTRUMENT: 
Authors: 
License: 
SMILES: 
INCHI: 
INCHIKEY: 
COLLISIONENERGY: 
FORMULA: C15H14Cl2F3N3O3
RETENTIONTIME: 8.278466666666667
IONMODE: Positive
MASSBANKACCESSION: 
Links: 
Comment: C13H9Cl2FN3O2 C13H10Cl2F2N3O2 C13H12Cl2F2N3O3 C15H9Cl2F2NO C9H11ClF2N3O3 C12H6Cl2F2 C13H9Cl2F2N3O2 C12H7ClFN C12H10Cl2F2N3O C15H13Cl2F2N3O3 
Num Peaks: 10
350.994806 1.0
371.001034 0.548218966
389.011599 0.195482194
349.992146 0.169417903
305.034921 0.11728931199999999
280.970683 0.09122502099999999
369.993209 0.065160729
242.014326 0.039096437000000005
343.006119 0.039096437000000005
414.019424 0.039096437000000005

NAME: Mandipropamid
PRECURSORMZ: 434.112957
PRECURSORTYPE: [M+Na]+
INSTRUMENTTYPE: 
INSTRUMENT: 
Authors: 
License: 
SMILES: 
INCHI: 
INCHIKEY: 
COLLISIONENERGY: 
FORMULA: C23H22ClNO4
RETENTIONTIME: 7.507416666666667
IONMODE: Positive
MASSBANKACCESSION: 
Links: 
Comment: C8H8O2 C12H5O3 C20H18ClNO4 C14H7O3 C9H9O2 C15H13NO3 C22H19ClNO4 C8H6O2 C9H10O2 
Num Peaks: 9
159.04165 1.0
220.01309 0.558453262
394.081656 0.130125031
246.02874 0.08132814599999999
172.049475 0.065062515
278.078764 0.065062515
419.089481 0.065062515
157.026 0.032531258
173.0573 0.032531258

NAME: Halosulfuron-methyl
PRECURSORMZ: 435.048422
PRECURSORTYPE: [M+H]+
INSTRUMENTTYPE: 
INSTRUMENT: 
Authors: 
License: 
SMILES: 
INCHI: 
INCHIKEY: 
COLLISIONENERGY: 
FORMULA: C13H15ClN6O7S
RETENTIONTIME: 7.417416666666667
IONMODE: Positive
MASSBANKACCESSION: 
Links: 
Comment: C6H6N2O2 C6H9N3O2 C12H11ClN6O6S 
Num Peaks: 3
139.050204 1.0
156.076753 0.156126767
403.022207 0.046005551

NAME: Fipronil
PRECURSORMZ: 436.945983
PRECURSORTYPE: [M+H]+
INSTRUMENTTYPE: 
INSTRUMENT: 
Authors: 
License: 
SMILES: 
INCHI: 
INCHIKEY: 
COLLISIONENERGY: 
FORMULA: C12H4Cl2F6N4OS
RETENTIONTIME: 8.262933333333333
IONMODE: Positive
MASSBANKACCESSION: 
Links: 
Comment: C8H4Cl2F5N4OS C5H3Cl2F5N2 C7H3Cl2F4N4 C7H3ClF5N3S C8H4Cl2F5N4 C10HCl2FNOS C11HCl2FN3 C8H4ClF5N4OS C10H2Cl2FN2O C8HF5NO C11H3Cl2FN3O C3H3ClF4N4OS C11H4ClF3N4OS C6H2Cl2F4N3 C7H3F5N3S C7ClF5O C4H2Cl2F5N C5HClF5N4S C11H2ClF3N4S C11H2ClF3N3OS C5H2Cl2F5N C9H3ClF3N3 C8H3ClF5N4S 
Num Peaks: 23
369.94758 1.0
256.966621 0.432835817
289.974366 0.24660787
291.972913 0.241858885
321.980594 0.10685210699999999
272.92127 0.104816824
264.960432 0.096675709
334.978727 0.09158751400000001
255.960098 0.076322928
223.005106 0.07496608
282.970997 0.071234733
254.972499 0.066146538
332.981921 0.055970150999999996
262.963467 0.050881952
257.004061 0.049413159000000005
230.96306 0.045793757000000004
229.955722 0.035617366
279.960337 0.035617366
314.971356 0.035617366
316.963196 0.035617366
241.955722 0.030529173
246.004036 0.030529173
317.975987 0.030529173

NAME: Propaquizafop
PRECURSORMZ: 444.132075
PRECURSORTYPE: [M+H]+
INSTRUMENTTYPE: 
INSTRUMENT: 
Authors: 
License: 
SMILES: 
INCHI: 
INCHIKEY: 
COLLISIONENERGY: 
FORMULA: C22H22ClN3O5
RETENTIONTIME: 9.181866666666668
IONMODE: Positive
MASSBANKACCESSION: 
Links: 
Comment: C16H11ClN2O2 C5H9NO C17H11ClN2O3 C19H15ClN2O4 C15H11ClN2O C14H11ClN2 C14H7ClN2O C13H7ClN2O C11NO C14H7ClN2O2 C15H9ClN2O2 C15H9ClN2 C16H9ClN2O C15H11N2O C11H10O3 C9H6O2 
Num Peaks: 16
299.058182 1.0
100.07569 0.910568833
327.053096 0.39487257600000003
371.079311 0.324699759
271.063267 0.32367843399999996
243.068352 0.18806234
255.031967 0.167316571
243.031967 0.13069382300000001
163.005265 0.11602605099999999
271.026882 0.10846515699999999
285.042532 0.099838123
253.052702 0.06064827
281.047617 0.053420170999999995
236.094414 0.052930769
191.070271 0.044610925
147.044056 0.039942779

NAME: 
PRECURSORMZ: 0.0
PRECURSORTYPE: 
INSTRUMENTTYPE: 
INSTRUMENT: 
Authors: 
License: 
SMILES: 
INCHI: 
INCHIKEY: 
COLLISIONENERGY: 
FORMULA: 
RETENTIONTIME: 0.0
IONMODE: 
MASSBANKACCESSION: 
Links: 
Comment: C20H19N3O4 
Num Peaks: 1
388.126777 1.0

NAME: Bispyribac sodium salt
PRECURSORMZ: 453.101684
PRECURSORTYPE: [M+Na]+
INSTRUMENTTYPE: 
INSTRUMENT: 
Authors: 
License: 
SMILES: 
INCHI: 
INCHIKEY: 
COLLISIONENERGY: 
FORMULA: C19H18N4O8
RETENTIONTIME: 6.960316666666667
IONMODE: Positive
MASSBANKACCESSION: 
Links: 
Comment: C6H8N2O3 C11H12N2O5 C18H18N4O6 
Num Peaks: 3
179.042713 1.0
275.063842 0.148883373
409.111855 0.148883373

NAME: Foramsulfron
PRECURSORMZ: 453.118694
PRECURSORTYPE: [M+H]+
INSTRUMENTTYPE: 
INSTRUMENT: 
Authors: 
License: 
SMILES: 
INCHI: 
INCHIKEY: 
COLLISIONENERGY: 
FORMULA: C17H20N6O7S
RETENTIONTIME: 5.5377833333333335
IONMODE: Positive
MASSBANKACCESSION: 
Links: 
Comment: C10H10N2O4S C6H6N2O2 C8H6N2O4S C6H9N3O2 C10H13N3O4S C8H5NO4S C8H6N2O2 C15H13N5O7S C8H5NO2 
Num Peaks: 9
255.043404 1.0
139.050204 0.57717824
227.012104 0.298356742
156.076753 0.229856476
272.069953 0.155901551
212.001205 0.139918149
163.050204 0.03883712
408.060845 0.036152922000000004
148.039305 0.032474205

NAME: Fluoxastrobin
PRECURSORMZ: 459.086602
PRECURSORTYPE: [M+H]+
INSTRUMENTTYPE: 
INSTRUMENT: 
Authors: 
License: 
SMILES: 
INCHI: 
INCHIKEY: 
COLLISIONENERGY: 
FORMULA: C21H16ClFN4O5
RETENTIONTIME: 7.988033333333333
IONMODE: Positive
MASSBANKACCESSION: 
Links: 
Comment: C20H12ClFN4O4 C10H4FN2O C17H8FN3O2 C18H8ClFN4O2 C18H8ClFN4O3 C7H4ClN C8H4N2O C17H7ClFN3O2 C16H8ClFN2O2 C11H4FN3O3 C10H9ClFNO2 C8H4FNO C8H3NO2 C9H4FNO2 C17H9ClFN3O2 C11H3FN2O3 
Num Peaks: 16
427.060387 1.0
188.038042 0.395339757
306.067331 0.16405350000000002
367.039258 0.125510812
383.034172 0.09388603300000001
138.010503 0.082966417
145.039639 0.068968572
340.028359 0.06306176599999999
315.03311 0.061419126
246.030946 0.058859009000000004
230.037861 0.055829382999999996
150.034968 0.049307745
146.023655 0.039255541
178.029883 0.039109728999999996
342.044009 0.034670598999999996
231.020047 0.032483432

NAME: Hexaflumuron
PRECURSORMZ: 460.988893
PRECURSORTYPE: [M+H]+
INSTRUMENTTYPE: 
INSTRUMENT: 
Authors: 
License: 
SMILES: 
INCHI: 
INCHIKEY: 
COLLISIONENERGY: 
FORMULA: C16H8Cl2F6N2O3
RETENTIONTIME: 8.666516666666666
IONMODE: Positive
MASSBANKACCESSION: 
Links: 
Comment: C7H5F2NO C7H2F2O C8H5Cl2F4NO 
Num Peaks: 3
158.041197 1.0
141.014648 0.9859809279999999
277.975708 0.036739014

NAME: Temephos
PRECURSORMZ: 466.997001
PRECURSORTYPE: [M+H]+
INSTRUMENTTYPE: 
INSTRUMENT: 
Authors: 
License: 
SMILES: 
INCHI: 
INCHIKEY: 
COLLISIONENERGY: 
FORMULA: C16H20O6P2S3
RETENTIONTIME: 9.431000000000001
IONMODE: Positive
MASSBANKACCESSION: 
Links: 
Comment: C15H16O6P2S2 C14H13O4PS2 C2H5O2PS C8H9O3PS2 C14H14O6P2S2 C15H17O4PS2 C15H16O5P2S3 C13H10O6P2S C13H11O6P2S C14H13O3PS2 C2H5OPS2 C12H7O4PS C11H6S C8H10O5P2S C14H14O4PS2 C13H10O3PS2 C14H13O5P2S2 C12H6O2S C12H8O3PS C7H6O5P2 C12H7OS C13H11O4PS2 C13H10OS2 C12H7O3PS C9H11O5P2S3 C11H6OS C12H7O2PS C8H10O4P2 
Num Peaks: 28
418.99363 1.0
341.006564 0.981572807
124.982063 0.8910656570000001
248.980349 0.269033879
404.97798 0.231455877
357.037864 0.188798487
434.970786 0.146536067
356.974609 0.131012723
357.982434 0.105616555
325.011649 0.10265265400000001
140.95922 0.100560866
278.987543 0.09139742699999999
171.026298 0.078363217
280.979694 0.070161149
342.014389 0.062643178
309.988174 0.06256418700000001
387.97524 0.057824474
215.016127 0.057429496
264.000453 0.056165572000000004
232.976323 0.044146455999999994
200.029037 0.039102614
326.990914 0.038075677999999995
247.024583 0.035540722000000004
262.992628 0.032809068
357.931661 0.03193064
187.021212 0.03131764
246.997714 0.030353107999999997
233.012709 0.030182477000000003

NAME: Fluoxastrobin
PRECURSORMZ: 481.068546
PRECURSORTYPE: [M+Na]+
INSTRUMENTTYPE: 
INSTRUMENT: 
Authors: 
License: 
SMILES: 
INCHI: 
INCHIKEY: 
COLLISIONENERGY: 
FORMULA: C21H16ClFN4O5
RETENTIONTIME: 7.988033333333333
IONMODE: Positive
MASSBANKACCESSION: 
Links: 
Comment: C20H13ClFN4O4 C20H16ClNO5 C20H16O4 C18H9ClFN4O2 C20H13FN4O4 C20H16NO5 
Num Peaks: 6
450.050156 1.0
408.060921 0.363636374
343.09408 0.272727281
390.029027 0.181818187
415.081304 0.181818187
373.092068 0.121212125

NAME: Chlorantraniliprole
PRECURSORMZ: 481.978069
PRECURSORTYPE: [M+H]+
INSTRUMENTTYPE: 
INSTRUMENT: 
Authors: 
License: 
SMILES: 
INCHI: 
INCHIKEY: 
COLLISIONENERGY: 
FORMULA: C18H14BrCl2N5O2
RETENTIONTIME: 6.923266666666667
IONMODE: Positive
MASSBANKACCESSION: 
Links: 
Comment: C12BrN2O2 C9H4ClNO2 C11N2O C12N2O2 C14H3ClN4O C4H9BrN3 C12H11BrNO2 C5H9BrN3O C7H4ClN C5H2ClN 
Num Peaks: 10
283.921591 1.0
194.000333 0.7290134429999999
177.008339 0.6976920959999999
205.003254 0.294065446
279.006815 0.139868125
179.005261 0.127060607
281.004592 0.091047429
207.000175 0.07583058599999999
138.010503 0.053258941
111.994853 0.032335784

NAME: Flufenoxuron
PRECURSORMZ: 489.043516
PRECURSORTYPE: [M+H]+
INSTRUMENTTYPE: 
INSTRUMENT: 
Authors: 
License: 
SMILES: 
INCHI: 
INCHIKEY: 
COLLISIONENERGY: 
FORMULA: C21H11ClF6N2O3
RETENTIONTIME: 9.522533333333334
IONMODE: Positive
MASSBANKACCESSION: 
Links: 
Comment: C7H5F2NO C7H2F2O C13H8ClF4NO 
Num Peaks: 3
158.041197 1.0
141.014648 0.585223019
306.030331 0.03844421

NAME: Mesosulfuron-methyl
PRECURSORMZ: 504.085346
PRECURSORTYPE: [M+H]+
INSTRUMENTTYPE: 
INSTRUMENT: 
Authors: 
License: 
SMILES: 
INCHI: 
INCHIKEY: 
COLLISIONENERGY: 
FORMULA: C17H21N5O9S2
RETENTIONTIME: 6.3299666666666665
IONMODE: Positive
MASSBANKACCESSION: 
Links: 
Comment: C6H6N2O2 C9H7NO2 C10H11NO4S C9H7NO4S C4H5NO2 C16H17N5O8S2 
Num Peaks: 6
139.050204 1.0
162.054955 0.9250107409999999
242.048155 0.364952624
226.016855 0.065631807
100.03930500000001 0.050715487000000004
472.059131 0.050715487000000004

NAME: Indoxacarb
PRECURSORMZ: 528.077989
PRECURSORTYPE: [M+H]+
INSTRUMENTTYPE: 
INSTRUMENT: 
Authors: 
License: 
SMILES: 
INCHI: 
INCHIKEY: 
COLLISIONENERGY: 
FORMULA: C22H17ClF3N3O7
RETENTIONTIME: 8.945716666666668
IONMODE: Positive
MASSBANKACCESSION: 
Links: 
Comment: C8H3F3NO2 C8H4ClN C9H6F3NO2 C10H4ClNO C12H9ClN2O2 C8H6ClFN2O2 C9H4ClN C8H8ClFO4 C11H7ClN2O C7H6ClFN2O C7H8ClFO3 C10H10ClFN2O5 C9H8ClFN2O4 C10H3ClNO C9H4ClNO C8H5NO C8H4ClFN2O3 C10H7ClO C10H6N2 C7H3NO2 C6H8ClFO2 C9H10ClFN2O4 
Num Peaks: 22
203.018864 1.0
150.010503 0.83570981
218.04234 0.786868036
190.005418 0.512419045
249.042532 0.33958724100000004
217.01746 0.282051295
162.010503 0.214903072
223.016791 0.212073803
219.031967 0.138711691
189.022545 0.12686491
195.021876 0.117260791
293.033504 0.09781113300000001
263.022939 0.086053781
188.997593 0.06075735
178.005418 0.054808632
132.04439 0.054721702000000004
230.99672400000003 0.04183865
179.025819 0.039649781
155.060375 0.034459036
134.023655 0.033896185
167.026962 0.031894933
265.038589 0.030956848

NAME: Indoxacarb
PRECURSORMZ: 550.059933
PRECURSORTYPE: [M+Na]+
INSTRUMENTTYPE: 
INSTRUMENT: 
Authors: 
License: 
SMILES: 
INCHI: 
INCHIKEY: 
COLLISIONENERGY: 
FORMULA: C22H17ClF3N3O7
RETENTIONTIME: 8.945716666666668
IONMODE: Positive
MASSBANKACCESSION: 
Links: 
Comment: C12H5FO C18H15ClF3N3O4 C10H9ClO C21H15ClF3N3O6 C11H5F C12H9ClN2O2 C7H7Cl C21H17ClF3N3O5 
Num Peaks: 8
207.021664 1.0
452.059539 0.810000002
203.023413 0.300000012
520.049368 0.300000012
179.026749 0.200000003
271.024476 0.200000003
149.01284899999996 0.150000006
506.070104 0.150000006

NAME: Moxidectin
PRECURSORMZ: 640.384394
PRECURSORTYPE: [M+H]+
INSTRUMENTTYPE: 
INSTRUMENT: 
Authors: 
License: 
SMILES: 
INCHI: 
INCHIKEY: 
COLLISIONENERGY: 
FORMULA: C37H53NO8
RETENTIONTIME: 10.79531666666667
IONMODE: Positive
MASSBANKACCESSION: 
Links: 
Comment: C14H14O C13H14 C29H37NO3 C10H8O C28H35NO2 C29H39O3 C12H11 C13H12 C18H18O C29H39NO4 C37H51NO7 
Num Peaks: 11
199.111742 1.0
171.116827 0.7142857309999999
448.28462 0.571428597
145.064791 0.42857143299999995
418.274056 0.42857143299999995
436.297197 0.42857143299999995
156.093352 0.28571429800000003
169.101177 0.28571429800000003
251.143042 0.28571429800000003
466.295185 0.28571429800000003
622.373829 0.28571429800000003

NAME: Mixture of Avermectin B1a and B1b
PRECURSORMZ: 873.499483
PRECURSORTYPE: [M+H]+
INSTRUMENTTYPE: 
INSTRUMENT: 
Authors: 
License: 
SMILES: 
INCHI: 
INCHIKEY: 
COLLISIONENERGY: 
FORMULA: C48H72O14
RETENTIONTIME: 10.2082
IONMODE: Positive
MASSBANKACCESSION: 
Links: 
Comment: C7H12O3 C13H20O C6H8O2 C41H42O2 C41H58O10 
Num Peaks: 5
145.085921 1.0
193.158692 0.8571428659999999
113.059706 0.571428597
567.325757 0.571428597
711.410275 0.28571429800000003

